     Program PWSCF v.7.3.1 starts on 10Feb2025 at 12:37: 6

     Reading input from vc_relax.in

     Current dimensions of program PWSCF are:
     Max number of different atomic species (ntypx) = 10
     Max number of k-points (npk) =  40000
     Max angular momentum in pseudopotentials (lmaxx) =  4
     file Al.pbe-n-kjpaw_psl.1.0.0.UPF: wavefunction(s)  3S 3P renormalized
     file Fe.pbe-spn-kjpaw_psl.1.0.0.UPF: wavefunction(s)  3P 3D renormalized
     file H.pbe-kjpaw_psl.1.0.0.UPF: wavefunction(s)  1S renormalized
     file K.pbe-spn-kjpaw_psl.1.0.0.UPF: wavefunction(s)  3S renormalized
     file Mg.pbe-spnl-kjpaw_psl.1.0.0.UPF: wavefunction(s)  2P renormalized
     file O.pbe-n-kjpaw_psl.1.0.0.UPF: wavefunction(s)  2S 2P renormalized
     file Si.pbe-n-kjpaw_psl.1.0.0.UPF: wavefunction(s)  3S 3P renormalized

     R & G space division:  proc/nbgrp/npool/nimage =       6
     Subspace diagonalization in iterative solution of the eigenvalue problem:
     one sub-group per band group will be used

     Using Slab Decomposition

     bravais-lattice index     =          -12
     lattice parameter (alat)  =      10.0675  a.u.
     unit-cell volume          =    3414.2439 (a.u.)^3
     number of atoms/cell      =           44
     number of atomic types    =            7
     number of electrons       =       262.00
     number of Kohn-Sham states=          157
     kinetic-energy cutoff     =      60.0000  Ry
     charge density cutoff     =     480.0000  Ry
     scf convergence threshold =      1.0E-06
     mixing beta               =       0.7000
     number of iterations used =            8  plain     mixing
     energy convergence thresh.=      1.0E-06
     force convergence thresh. =      1.0E-03
     press convergence thresh. =      5.0E-01
     Exchange-correlation= SLA  PW   PBX  PBC
                           (   1   4   3   4   0   0   0)
     nstep                     =           50

     celldm(1)=  10.067544  celldm(2)=   1.739602  celldm(3)=   1.954678
     celldm(4)=   0.000000  celldm(5)=  -0.178119  celldm(6)=   0.000000

     crystal axes: (cart. coord. in units of alat)
               a(1) = (   1.000000   0.000000   0.000000 )
               a(2) = (   0.000000   1.739602   0.000000 )
               a(3) = (  -0.348166   0.000000   1.923420 )

     reciprocal axes: (cart. coord. in units 2 pi/alat)
               b(1) = (  1.000000 -0.000000  0.181014 )
               b(2) = (  0.000000  0.574844 -0.000000 )
               b(3) = (  0.000000  0.000000  0.519907 )

     PseudoPot. # 1 for Al read from file:
     ./../../../pseudos/Al.pbe-n-kjpaw_psl.1.0.0.UPF
     MD5 check sum: 502b6b27b9c6270cab5dd1084b96fa6d
     Pseudo is Projector augmented-wave + core cor, Zval =  3.0
     Generated using &quot;atomic&quot; code by A. Dal Corso  v.6.3
     Shape of augmentation charge: PSQ
     Using radial grid of 1135 points,  6 beta functions with:
                l(1) =   0
                l(2) =   0
                l(3) =   1
                l(4) =   1
                l(5) =   2
                l(6) =   2
     Q(r) pseudized with 0 coefficients

     PseudoPot. # 2 for Fe read from file:
     ./../../../pseudos/Fe.pbe-spn-kjpaw_psl.1.0.0.UPF
     MD5 check sum: fc81f059e5c5069939230b1155715ae8
     Pseudo is Projector augmented-wave + core cor, Zval = 16.0
     Generated using &quot;atomic&quot; code by A. Dal Corso  v.6.3
     Shape of augmentation charge: PSQ
     Using radial grid of 1191 points,  6 beta functions with:
                l(1) =   0
                l(2) =   0
                l(3) =   1
                l(4) =   1
                l(5) =   2
                l(6) =   2
     Q(r) pseudized with 0 coefficients

     PseudoPot. # 3 for H  read from file:
     ./../../../pseudos/H.pbe-kjpaw_psl.1.0.0.UPF
     MD5 check sum: d81a744832360e4a8af0b0b5b123bc2a
     Pseudo is Projector augmented-wave, Zval =  1.0
     Generated using &quot;atomic&quot; code by A. Dal Corso  v.6.3MaX
     Shape of augmentation charge: PSQ
     Using radial grid of  929 points,  2 beta functions with:
                l(1) =   0
                l(2) =   0
     Q(r) pseudized with 0 coefficients

     PseudoPot. # 4 for K  read from file:
     ./../../../pseudos/K.pbe-spn-kjpaw_psl.1.0.0.UPF
     MD5 check sum: 34cc42130a09071ebe376fd42eb21491
     Pseudo is Projector augmented-wave + core cor, Zval =  9.0
     Generated using &quot;atomic&quot; code by A. Dal Corso  v.6.2.2
     Shape of augmentation charge: PSQ
     Using radial grid of 1165 points,  6 beta functions with:
                l(1) =   0
                l(2) =   0
                l(3) =   1
                l(4) =   1
                l(5) =   2
                l(6) =   2
     Q(r) pseudized with 0 coefficients

     PseudoPot. # 5 for Mg read from file:
     ./../../../pseudos/Mg.pbe-spnl-kjpaw_psl.1.0.0.UPF
     MD5 check sum: fda14e0d92a6a9a5ebed782e5a4b3067
     Pseudo is Projector augmented-wave + core cor, Zval = 10.0
     Generated using &quot;atomic&quot; code by A. Dal Corso  v.6.3
     Shape of augmentation charge: PSQ
     Using radial grid of 1129 points,  4 beta functions with:
                l(1) =   0
                l(2) =   0
                l(3) =   1
                l(4) =   1
     Q(r) pseudized with 0 coefficients

     PseudoPot. # 6 for O  read from file:
     ./../../../pseudos/O.pbe-n-kjpaw_psl.1.0.0.UPF
     MD5 check sum: e99d9cef9b487d1ca56f5b95ecd0fd7a
     Pseudo is Projector augmented-wave + core cor, Zval =  6.0
     Generated using &quot;atomic&quot; code by A. Dal Corso  v.6.3
     Shape of augmentation charge: PSQ
     Using radial grid of 1095 points,  4 beta functions with:
                l(1) =   0
                l(2) =   0
                l(3) =   1
                l(4) =   1
     Q(r) pseudized with 0 coefficients

     PseudoPot. # 7 for Si read from file:
     ./../../../pseudos/Si.pbe-n-kjpaw_psl.1.0.0.UPF
     MD5 check sum: c39c59da582df4a0d9f10159256ea34e
     Pseudo is Projector augmented-wave + core cor, Zval =  4.0
     Generated using &quot;atomic&quot; code by A. Dal Corso  v.6.3
     Shape of augmentation charge: PSQ
     Using radial grid of 1141 points,  6 beta functions with:
                l(1) =   0
                l(2) =   0
                l(3) =   1
                l(4) =   1
                l(5) =   2
                l(6) =   2
     Q(r) pseudized with 0 coefficients

     atomic species   valence    mass     pseudopotential
     Al                3.00    26.98154     Al( 1.00)
     Fe               16.00    55.84500     Fe( 1.00)
     H                 1.00     1.00794     H ( 1.00)
     K                 9.00    39.09830     K ( 1.00)
     Mg               10.00    24.30500     Mg( 1.00)
     O                 6.00    15.99940     O ( 1.00)
     Si                4.00    28.08550     Si( 1.00)

     Starting magnetic structure
     atomic species   magnetization
     Al              0.000
     Fe              0.300
     H               0.000
     K               0.000
     Mg              0.000
     O               0.000
     Si              0.000

      2 Sym. Ops. (no inversion) found

                                    s                        frac. trans.

      isym =  1     identity

 cryst.   s( 1) = (     1          0          0      )
                  (     0          1          0      )
                  (     0          0          1      )

 cart.    s( 1) = (  1.0000000  0.0000000  0.0000000 )
                  (  0.0000000  1.0000000  0.0000000 )
                  (  0.0000000  0.0000000  1.0000000 )

      isym =  2     180 deg rotation - cart. axis [0,1,0]

[...]

     point group C_2  (2)
     there are  2 classes
     the character table:

       E     C2
A      1.00  1.00
B      1.00 -1.00

     the symmetry operations in each class and the name of the first element:

     E        1
          identity
     C2       2
          180 deg rotation - cart. axis [0,1,0]

   Cartesian axes

     site n.     atom                  positions (alat units)
         1        K      tau(   1) = (   0.0000000   0.8592778   0.0000000  )
         2        K      tau(   2) = (   0.5000001   0.0049001   0.0000000  )
         3        Mg     tau(   3) = (  -0.1740827   0.0110558   0.9617099  )
         4        Mg     tau(   4) = (  -0.1740827   1.1602560   0.9617099  )
         5        Mg     tau(   5) = (   0.3259175   0.8621897   0.9617099  )
         6        Mg     tau(   6) = (   0.3259175   1.4538600   0.9617099  )
         7        Mg     tau(   7) = (   0.3259175   0.2965176   0.9617099  )
         8        Si     tau(   8) = (   0.0148652   0.2840238   0.4329784  )
         9        Si     tau(   9) = (   0.6369697   0.2840238   1.4904415  )
        10        Si     tau(  10) = (   0.6663216   1.4515822   1.4755159  )
        11        Si     tau(  11) = (  -0.0144867   1.4515822   0.4479039  )
        12        Si     tau(  12) = (   0.4855333   1.1593409   0.4451568  )
        13        Si     tau(  13) = (   0.1663016   1.1593409   1.4782631  )
        14        Al     tau(  14) = (   0.1364887   0.5751234   1.4850082  )
        15        Al     tau(  15) = (   0.5153463   0.5751234   0.4384117  )
        16        O      tau(  16) = (   0.0034704   0.2742015   0.7387771  )
        17        O      tau(  17) = (   0.6483645   0.2742015   1.1846429  )
        18        O      tau(  18) = (   0.6619749   1.4521765   1.1713525  )
        19        O      tau(  19) = (  -0.0101400   1.4521765   0.7520675  )
        20        O      tau(  20) = (   0.4913182   1.1648173   0.7507890  )
        21        O      tau(  21) = (   0.1605167   1.1648173   1.1726310  )
        22        O      tau(  22) = (   0.1497901   0.5796384   1.1569493  )
        23        O      tau(  23) = (   0.5020449   0.5796384   0.7664705  )
        24        O      tau(  24) = (   0.2927726   0.3550978   0.3253415  )
        25        O      tau(  25) = (   0.3590624   0.3550978   1.5980783  )
        26        O      tau(  26) = (  -0.0500909   1.7335777   0.3260823  )
        27        O      tau(  27) = (   0.7019259   1.7335777   1.5973376  )
        28        O      tau(  28) = (   0.4003301   1.3365745   1.5885564  )
        29        O      tau(  29) = (   0.2515048   1.3365745   0.3348635  )
        30        O      tau(  30) = (   0.7502033   1.2842471   0.3330181  )
        31        O      tau(  31) = (  -0.0983683   1.2842471   1.5904018  )
        32        O      tau(  32) = (   0.4534723   0.8824777   0.3228523  )
        33        O      tau(  33) = (   0.1983626   0.8824777   1.6005676  )
        34        O      tau(  34) = (  -0.1571815   0.4784114   1.6063961  )
        35        O      tau(  35) = (   0.8090165   0.4784114   0.3170238  )
        36        O      tau(  36) = (  -0.0000085   0.8900231   0.7562269  )
        37        O      tau(  37) = (   0.6518434   0.8900231   1.1671930  )
        38        O      tau(  38) = (   0.4957192   1.7387851   0.7672944  )
        39        O      tau(  39) = (   0.1561158   1.7387851   1.1561255  )
        40        H      tau(  40) = (   0.0008942   0.8538518   0.5784868  )
[...]
     The core correction contribution to forces
     atom    1 type  4   force =     0.00000000   -0.00141991    0.00000000
     atom    2 type  4   force =     0.00000098    0.00149475   -0.00000000
     atom    3 type  5   force =    -0.00000129    0.00020319    0.00000073
     atom    4 type  5   force =    -0.00000129   -0.00028214    0.00000073
     atom    5 type  5   force =    -0.00000202   -0.00055285    0.00000073
     atom    6 type  5   force =    -0.00000202    0.00031963    0.00000073
     atom    7 type  5   force =    -0.00000203    0.00015396    0.00000073
     atom    8 type  7   force =     0.00226588    0.00951637    0.00807069
     atom    9 type  7   force =    -0.00226493    0.00951641   -0.00807098
     atom   10 type  7   force =     0.00033577    0.00300272   -0.01371567
     atom   11 type  7   force =    -0.00033493    0.00300273    0.01371534
     atom   12 type  7   force =    -0.00096945   -0.01083460    0.01067054
     atom   13 type  7   force =     0.00097011   -0.01083459   -0.01067085
     atom   14 type  1   force =    -0.00011281   -0.00197116   -0.00785957
     atom   15 type  1   force =     0.00011354   -0.00197117    0.00785925
     atom   16 type  6   force =     0.00003809   -0.00060917    0.00639447
     atom   17 type  6   force =    -0.00003780   -0.00060919   -0.00639444
     atom   18 type  6   force =    -0.00003546    0.00016761   -0.00704549
     atom   19 type  6   force =     0.00003578    0.00016761    0.00704547
     atom   20 type  6   force =     0.00003262   -0.00010269    0.00682304
     atom   21 type  6   force =    -0.00003233   -0.00010270   -0.00682305
     atom   22 type  6   force =     0.00149533    0.00003282   -0.00260542
     atom   23 type  6   force =    -0.00149511    0.00003282    0.00260530
     atom   24 type  6   force =     0.00453788   -0.00165327   -0.00580107
     atom   25 type  6   force =    -0.00453782   -0.00165317    0.00580098
     atom   26 type  6   force =    -0.00314502    0.00069065   -0.00732664
     atom   27 type  6   force =     0.00314542    0.00069067    0.00732648
     atom   28 type  6   force =    -0.00139707    0.00199070    0.00734199
     atom   29 type  6   force =     0.00139709    0.00199089   -0.00734208
     atom   30 type  6   force =     0.00071266   -0.00181015   -0.00750747
     atom   31 type  6   force =    -0.00071265   -0.00180997    0.00750736
     atom   32 type  6   force =    -0.00220169   -0.00342648   -0.00642609
     atom   33 type  6   force =     0.00220199   -0.00342649    0.00642595
     atom   34 type  6   force =     0.00102002    0.00416083    0.00628439
     atom   35 type  6   force =    -0.00101986    0.00416095   -0.00628452
     atom   36 type  6   force =     0.00018107    0.00277402    0.01088048
     atom   37 type  6   force =    -0.00018062    0.00277402   -0.01088039
     atom   38 type  6   force =     0.00018875   -0.00139548    0.01113049
     atom   39 type  6   force =    -0.00018823   -0.00139544   -0.01113041
     atom   40 type  3   force =     0.00000000    0.00000000    0.00000000
     atom   41 type  3   force =     0.00000000    0.00000000    0.00000000
     atom   42 type  3   force =     0.00000000    0.00000000    0.00000000
     atom   43 type  3   force =     0.00000000    0.00000000    0.00000000
     atom   44 type  2   force =     0.00000116    0.00326251   -0.00000092
     The Hubbard contrib.    to forces
     atom    1 type  4   force =     0.00000000    0.00000000    0.00000000
     atom    2 type  4   force =     0.00000000    0.00000000    0.00000000
     atom    3 type  5   force =     0.00000000    0.00000000    0.00000000
     atom    4 type  5   force =     0.00000000    0.00000000    0.00000000
     atom    5 type  5   force =     0.00000000    0.00000000    0.00000000
     atom    6 type  5   force =     0.00000000    0.00000000    0.00000000
     atom    7 type  5   force =     0.00000000    0.00000000    0.00000000
     atom    8 type  7   force =     0.00000000    0.00000000    0.00000000
     atom    9 type  7   force =     0.00000000    0.00000000    0.00000000
     atom   10 type  7   force =     0.00000000    0.00000000    0.00000000
     atom   11 type  7   force =     0.00000000    0.00000000    0.00000000
     atom   12 type  7   force =     0.00000000    0.00000000    0.00000000
     atom   13 type  7   force =     0.00000000    0.00000000    0.00000000
     atom   14 type  1   force =     0.00000000    0.00000000    0.00000000
     atom   15 type  1   force =     0.00000000    0.00000000    0.00000000
     atom   16 type  6   force =     0.00000000    0.00000000    0.00000000
     atom   17 type  6   force =     0.00000000    0.00000000    0.00000000
     atom   18 type  6   force =     0.00000000    0.00000000    0.00000000
     atom   19 type  6   force =     0.00000000    0.00000000    0.00000000
     atom   20 type  6   force =     0.00000000    0.00000000    0.00000000
     atom   21 type  6   force =     0.00000000    0.00000000    0.00000000
     atom   22 type  6   force =     0.00000000    0.00000000    0.00000000
     atom   23 type  6   force =     0.00000000    0.00000000    0.00000000
     atom   24 type  6   force =     0.00000000    0.00000000    0.00000000
     atom   25 type  6   force =     0.00000000    0.00000000    0.00000000
     atom   26 type  6   force =     0.00000000    0.00000000    0.00000000
     atom   27 type  6   force =     0.00000000    0.00000000    0.00000000
     atom   28 type  6   force =     0.00000000    0.00000000    0.00000000
     atom   29 type  6   force =     0.00000000    0.00000000    0.00000000
     atom   30 type  6   force =     0.00000000    0.00000000    0.00000000
     atom   31 type  6   force =     0.00000000    0.00000000    0.00000000
     atom   32 type  6   force =     0.00000000    0.00000000    0.00000000
     atom   33 type  6   force =     0.00000000    0.00000000    0.00000000
     atom   34 type  6   force =     0.00000000    0.00000000    0.00000000
     atom   35 type  6   force =     0.00000000    0.00000000    0.00000000
     atom   36 type  6   force =     0.00000000    0.00000000    0.00000000
     atom   37 type  6   force =     0.00000000    0.00000000    0.00000000
     atom   38 type  6   force =     0.00000000    0.00000000    0.00000000
     atom   39 type  6   force =     0.00000000    0.00000000    0.00000000
     atom   40 type  3   force =     0.00000000    0.00000000    0.00000000
     atom   41 type  3   force =     0.00000000    0.00000000    0.00000000
     atom   42 type  3   force =     0.00000000    0.00000000    0.00000000
     atom   43 type  3   force =     0.00000000    0.00000000    0.00000000
     atom   44 type  2   force =     0.00000000    0.00000000    0.00000000
     The SCF correction term to forces
     atom    1 type  4   force =     0.00000000   -0.00000342   -0.00000000
     atom    2 type  4   force =    -0.00000000    0.00000389   -0.00000000
     atom    3 type  5   force =    -0.00000000   -0.00000579    0.00000000
     atom    4 type  5   force =    -0.00000000    0.00000617    0.00000000
     atom    5 type  5   force =    -0.00000000    0.00000435    0.00000000
     atom    6 type  5   force =    -0.00000000   -0.00000803    0.00000000
     atom    7 type  5   force =    -0.00000000    0.00000599    0.00000000
     atom    8 type  7   force =     0.00000037    0.00000165   -0.00000445
     atom    9 type  7   force =    -0.00000037    0.00000165    0.00000445
     atom   10 type  7   force =    -0.00000028   -0.00000081   -0.00000131
     atom   11 type  7   force =     0.00000028   -0.00000081    0.00000131
     atom   12 type  7   force =    -0.00000068   -0.00000116    0.00000197
     atom   13 type  7   force =     0.00000068   -0.00000116   -0.00000197
     atom   14 type  1   force =    -0.00000011    0.00000018    0.00000009
     atom   15 type  1   force =     0.00000011    0.00000018   -0.00000009
     atom   16 type  6   force =    -0.00000437   -0.00000306    0.00000586
     atom   17 type  6   force =     0.00000437   -0.00000306   -0.00000586
     atom   18 type  6   force =     0.00000057   -0.00000274    0.00000149
     atom   19 type  6   force =    -0.00000057   -0.00000274   -0.00000149
     atom   20 type  6   force =     0.00000015    0.00000474    0.00000430
     atom   21 type  6   force =    -0.00000015    0.00000474   -0.00000430
     atom   22 type  6   force =    -0.00000065    0.00000313   -0.00001081
     atom   23 type  6   force =     0.00000064    0.00000313    0.00001081
     atom   24 type  6   force =     0.00000263   -0.00000322   -0.00001912
     atom   25 type  6   force =    -0.00000263   -0.00000322    0.00001912
     atom   26 type  6   force =    -0.00000045   -0.00000244   -0.00000378
     atom   27 type  6   force =     0.00000045   -0.00000244    0.00000378
     atom   28 type  6   force =     0.00000018   -0.00000062    0.00000145
     atom   29 type  6   force =    -0.00000018   -0.00000062   -0.00000145
     atom   30 type  6   force =     0.00000034   -0.00000001   -0.00000140
     atom   31 type  6   force =    -0.00000034   -0.00000001    0.00000140
     atom   32 type  6   force =    -0.00000150    0.00000390   -0.00001254
     atom   33 type  6   force =     0.00000150    0.00000390    0.00001254
     atom   34 type  6   force =    -0.00000047    0.00000325    0.00001797
     atom   35 type  6   force =     0.00000047    0.00000325   -0.00001797
     atom   36 type  6   force =    -0.00000037    0.00000386   -0.00000225
     atom   37 type  6   force =     0.00000037    0.00000386    0.00000225
     atom   38 type  6   force =     0.00000324   -0.00000779   -0.00000377
     atom   39 type  6   force =    -0.00000324   -0.00000779    0.00000377
     atom   40 type  3   force =    -0.00000004    0.00000067    0.00000031
     atom   41 type  3   force =     0.00000004    0.00000067   -0.00000031
     atom   42 type  3   force =     0.00000034   -0.00000118    0.00000240
     atom   43 type  3   force =    -0.00000034   -0.00000118   -0.00000240
     atom   44 type  2   force =     0.00000000   -0.00000012   -0.00000000

     DFT-D3 dispersion contribution to forces:
     atom    1 type  4   force =     0.00000001    0.00117576   -0.00000000
     atom    2 type  4   force =     0.00000000   -0.00078455    0.00000000
     atom    3 type  5   force =    -0.00000000    0.00044668    0.00000000
     atom    4 type  5   force =    -0.00000000   -0.00131172   -0.00000000
     atom    5 type  5   force =     0.00000000   -0.00048995    0.00000000
     atom    6 type  5   force =     0.00000000    0.00113626   -0.00000000
     atom    7 type  5   force =     0.00000000   -0.00032442   -0.00000000
     atom    8 type  7   force =    -0.00003697   -0.00005076   -0.00012283
     atom    9 type  7   force =     0.00003697   -0.00005076    0.00012283
     atom   10 type  7   force =     0.00004634    0.00002151    0.00025647
     atom   11 type  7   force =    -0.00004634    0.00002150   -0.00025647
     atom   12 type  7   force =     0.00001936    0.00025979   -0.00025505
     atom   13 type  7   force =    -0.00001936    0.00025979    0.00025505
     atom   14 type  1   force =    -0.00019649    0.00003828   -0.00101683
     atom   15 type  1   force =     0.00019649    0.00003828    0.00101683
     atom   16 type  6   force =    -0.00005470    0.00012519    0.00050076
     atom   17 type  6   force =     0.00005470    0.00012519   -0.00050077
     atom   18 type  6   force =     0.00000374    0.00000508   -0.00039104
     atom   19 type  6   force =    -0.00000374    0.00000508    0.00039104
     atom   20 type  6   force =    -0.00002093   -0.00000217    0.00039621
     atom   21 type  6   force =     0.00002093   -0.00000217   -0.00039621
     atom   22 type  6   force =    -0.00007815   -0.00001553    0.00002468
     atom   23 type  6   force =     0.00007815   -0.00001553   -0.00002468
     atom   24 type  6   force =    -0.00019896    0.00103108    0.00026233
     atom   25 type  6   force =     0.00019896    0.00103108   -0.00026232
     atom   26 type  6   force =     0.00087127    0.00006567    0.00021273
     atom   27 type  6   force =    -0.00087128    0.00006567   -0.00021273
     atom   28 type  6   force =     0.00032512   -0.00045547    0.00001593
     atom   29 type  6   force =    -0.00032513   -0.00045548   -0.00001593
     atom   30 type  6   force =    -0.00013805    0.00021143   -0.00005002
     atom   31 type  6   force =     0.00013804    0.00021143    0.00005003
     atom   32 type  6   force =     0.00095632   -0.00042662    0.00039052
     atom   33 type  6   force =    -0.00095632   -0.00042662   -0.00039052
     atom   34 type  6   force =     0.00069086   -0.00058947   -0.00043093
     atom   35 type  6   force =    -0.00069086   -0.00058947    0.00043093
     atom   36 type  6   force =    -0.00010783   -0.00017327   -0.00036669
     atom   37 type  6   force =     0.00010783   -0.00017327    0.00036669
     atom   38 type  6   force =     0.00002275   -0.00000340   -0.00052704
     atom   39 type  6   force =    -0.00002275   -0.00000340    0.00052704
     atom   40 type  3   force =    -0.00010118    0.00013375   -0.00010250
     atom   41 type  3   force =     0.00010118    0.00013375    0.00010250
     atom   42 type  3   force =     0.00010299   -0.00043800   -0.00030369
     atom   43 type  3   force =    -0.00010299   -0.00043800    0.00030369
     atom   44 type  2   force =    -0.00000000    0.00067776   -0.00000000

     Total force =     0.000532     Total SCF correction =     0.000053

     DFT-D3 dispersion Force =     0.004538

     Computing stress (Cartesian axis) and pressure

     negative rho (up, down):  0.000E+00 3.801E-04
          total   stress  (Ry/bohr**3)                   (kbar)     P=       -0.12
  -0.00000083   0.00000000   0.00000007           -0.12        0.00        0.01
   0.00000000  -0.00000029   0.00000000            0.00       -0.04        0.00
   0.00000007   0.00000000  -0.00000122            0.01        0.00       -0.18

     kinetic stress (kbar)  20077.25      0.00    -53.98
                                0.00  20167.15      0.00
                              -53.98      0.00  19859.16

     local   stress (kbar) -40692.81      0.00   -359.19
                                0.00 -39867.36     -0.00
                             -359.19     -0.00  19227.32

     nonloc. stress (kbar)   3807.02      0.00      7.02
                                0.00   3796.28      0.00
                                7.02      0.00   3784.64

     hartree stress (kbar)  22894.67      0.00    133.09
                                0.00  22563.39     -0.00
                              133.09     -0.00  -6369.33

     exc-cor stress (kbar)  -2822.35      0.00      0.01
                                0.00  -2822.34      0.00
                                0.01      0.00  -2819.23

     corecor stress (kbar)  -1858.59     -0.00      0.46
                               -0.00  -1859.26     -0.00
                                0.46     -0.00  -1860.54

     ewald   stress (kbar)  -1390.64     -0.00    272.58
                               -0.00  -1963.15      0.00
                              272.58      0.00 -31811.21

     hubbard stress (kbar)      0.00      0.00      0.00
                                0.00      0.00      0.00
                                0.00      0.00      0.00

     DFT-D   stress (kbar)    -14.67      0.00      0.03
                                0.00    -14.75      0.00
                                0.03      0.00    -10.98

     XDM     stress (kbar)      0.00      0.00      0.00
                                0.00      0.00      0.00
                                0.00      0.00      0.00

     dft-nl  stress (kbar)      0.00      0.00      0.00
                                0.00      0.00      0.00
                                0.00      0.00      0.00

     TS-vdW  stress (kbar)      0.00      0.00      0.00
                                0.00      0.00      0.00
                                0.00      0.00      0.00

     MDB     stress (kbar)      0.00      0.00      0.00
                                0.00      0.00      0.00
                                0.00      0.00      0.00

     3D-RISM stress (kbar)      0.00      0.00      0.00
                                0.00      0.00      0.00
                                0.00      0.00      0.00

     Writing all to output data dir ./temp/phl-fe1-fe2.save/ :
     XML data file, charge density, pseudopotentials, collected wavefunctions

     General routines

     Parallel routines

     PAW routines

   This run was terminated on:   0:17:21  12Feb2025

   JOB DONE.