     Program PWSCF v.7.3.1 starts on 29Dec2024 at  8:41:19

     Reading input from vc_relax.in

     Current dimensions of program PWSCF are:
     Max number of different atomic species (ntypx) = 10
     Max number of k-points (npk) =  40000
     Max angular momentum in pseudopotentials (lmaxx) =  4
     file Al.pbe-n-kjpaw_psl.1.0.0.UPF: wavefunction(s)  3S 3P renormalized
     file Fe.pbe-spn-kjpaw_psl.1.0.0.UPF: wavefunction(s)  3P 3D renormalized
     file H.pbe-kjpaw_psl.1.0.0.UPF: wavefunction(s)  1S renormalized
     file K.pbe-spn-kjpaw_psl.1.0.0.UPF: wavefunction(s)  3S renormalized
     file Mg.pbe-spnl-kjpaw_psl.1.0.0.UPF: wavefunction(s)  2P renormalized
     file O.pbe-n-kjpaw_psl.1.0.0.UPF: wavefunction(s)  2S 2P renormalized
     file Si.pbe-n-kjpaw_psl.1.0.0.UPF: wavefunction(s)  3S 3P renormalized

     R & G space division:  proc/nbgrp/npool/nimage =       4
     Subspace diagonalization in iterative solution of the eigenvalue problem:
     one sub-group per band group will be used

     Using Slab Decomposition

     bravais-lattice index     =          -12
     lattice parameter (alat)  =       9.9883  a.u.
     unit-cell volume          =    3285.8057 (a.u.)^3
     number of atoms/cell      =           44
     number of atomic types    =            7
     number of electrons       =       262.00
     number of Kohn-Sham states=          157
     kinetic-energy cutoff     =      60.0000  Ry
     charge density cutoff     =     480.0000  Ry
     scf convergence threshold =      1.0E-06
     mixing beta               =       0.7000
     number of iterations used =            8  plain     mixing
     energy convergence thresh.=      1.0E-04
     force convergence thresh. =      1.0E-03
     press convergence thresh. =      5.0E-01
     Exchange-correlation= SLA  PW   PBX  PBC
                           (   1   4   3   4   0   0   0)
     nstep                     =           50

     celldm(1)=   9.988336  celldm(2)=   1.736567  celldm(3)=   1.928182
     celldm(4)=   0.000000  celldm(5)=  -0.174018  celldm(6)=   0.000000

     crystal axes: (cart. coord. in units of alat)
               a(1) = (   1.000000   0.000000   0.000000 )
               a(2) = (   0.000000   1.736567   0.000000 )
               a(3) = (  -0.335538   0.000000   1.898763 )

     reciprocal axes: (cart. coord. in units 2 pi/alat)
               b(1) = (  1.000000 -0.000000  0.176714 )
               b(2) = (  0.000000  0.575849 -0.000000 )
               b(3) = (  0.000000  0.000000  0.526659 )

     PseudoPot. # 1 for Al read from file:
     ./../../pseudos/Al.pbe-n-kjpaw_psl.1.0.0.UPF
     MD5 check sum: 502b6b27b9c6270cab5dd1084b96fa6d
     Pseudo is Projector augmented-wave + core cor, Zval =  3.0
     Generated using &quot;atomic&quot; code by A. Dal Corso  v.6.3
     Shape of augmentation charge: PSQ
     Using radial grid of 1135 points,  6 beta functions with:
                l(1) =   0
                l(2) =   0
                l(3) =   1
                l(4) =   1
                l(5) =   2
                l(6) =   2
     Q(r) pseudized with 0 coefficients

     PseudoPot. # 2 for Fe read from file:
     ./../../pseudos/Fe.pbe-spn-kjpaw_psl.1.0.0.UPF
     MD5 check sum: fc81f059e5c5069939230b1155715ae8
     Pseudo is Projector augmented-wave + core cor, Zval = 16.0
     Generated using &quot;atomic&quot; code by A. Dal Corso  v.6.3
     Shape of augmentation charge: PSQ
     Using radial grid of 1191 points,  6 beta functions with:
                l(1) =   0
                l(2) =   0
                l(3) =   1
                l(4) =   1
                l(5) =   2
                l(6) =   2
     Q(r) pseudized with 0 coefficients

     PseudoPot. # 3 for H  read from file:
     ./../../pseudos/H.pbe-kjpaw_psl.1.0.0.UPF
     MD5 check sum: d81a744832360e4a8af0b0b5b123bc2a
     Pseudo is Projector augmented-wave, Zval =  1.0
     Generated using &quot;atomic&quot; code by A. Dal Corso  v.6.3MaX
     Shape of augmentation charge: PSQ
     Using radial grid of  929 points,  2 beta functions with:
                l(1) =   0
                l(2) =   0
     Q(r) pseudized with 0 coefficients

     PseudoPot. # 4 for K  read from file:
     ./../../pseudos/K.pbe-spn-kjpaw_psl.1.0.0.UPF
     MD5 check sum: 34cc42130a09071ebe376fd42eb21491
     Pseudo is Projector augmented-wave + core cor, Zval =  9.0
     Generated using &quot;atomic&quot; code by A. Dal Corso  v.6.2.2
     Shape of augmentation charge: PSQ
     Using radial grid of 1165 points,  6 beta functions with:
                l(1) =   0
                l(2) =   0
                l(3) =   1
                l(4) =   1
                l(5) =   2
                l(6) =   2
     Q(r) pseudized with 0 coefficients

     PseudoPot. # 5 for Mg read from file:
     ./../../pseudos/Mg.pbe-spnl-kjpaw_psl.1.0.0.UPF
     MD5 check sum: fda14e0d92a6a9a5ebed782e5a4b3067
     Pseudo is Projector augmented-wave + core cor, Zval = 10.0
     Generated using &quot;atomic&quot; code by A. Dal Corso  v.6.3
     Shape of augmentation charge: PSQ
     Using radial grid of 1129 points,  4 beta functions with:
                l(1) =   0
                l(2) =   0
                l(3) =   1
                l(4) =   1
     Q(r) pseudized with 0 coefficients

     PseudoPot. # 6 for O  read from file:
     ./../../pseudos/O.pbe-n-kjpaw_psl.1.0.0.UPF
     MD5 check sum: e99d9cef9b487d1ca56f5b95ecd0fd7a
     Pseudo is Projector augmented-wave + core cor, Zval =  6.0
     Generated using &quot;atomic&quot; code by A. Dal Corso  v.6.3
     Shape of augmentation charge: PSQ
     Using radial grid of 1095 points,  4 beta functions with:
                l(1) =   0
                l(2) =   0
                l(3) =   1
                l(4) =   1
     Q(r) pseudized with 0 coefficients

     PseudoPot. # 7 for Si read from file:
     ./../../pseudos/Si.pbe-n-kjpaw_psl.1.0.0.UPF
     MD5 check sum: c39c59da582df4a0d9f10159256ea34e
     Pseudo is Projector augmented-wave + core cor, Zval =  4.0
     Generated using &quot;atomic&quot; code by A. Dal Corso  v.6.3
     Shape of augmentation charge: PSQ
     Using radial grid of 1141 points,  6 beta functions with:
                l(1) =   0
                l(2) =   0
                l(3) =   1
                l(4) =   1
                l(5) =   2
                l(6) =   2
     Q(r) pseudized with 0 coefficients

     atomic species   valence    mass     pseudopotential
     Al                3.00    26.98154     Al( 1.00)
     Fe               16.00    55.84500     Fe( 1.00)
     H                 1.00     1.00794     H ( 1.00)
     K                 9.00    39.09830     K ( 1.00)
     Mg               10.00    24.30500     Mg( 1.00)
     O                 6.00    15.99940     O ( 1.00)
     Si                4.00    28.08550     Si( 1.00)

      2 Sym. Ops. (no inversion) found

                                    s                        frac. trans.

      isym =  1     identity

 cryst.   s( 1) = (     1          0          0      )
                  (     0          1          0      )
                  (     0          0          1      )

 cart.    s( 1) = (  1.0000000  0.0000000  0.0000000 )
                  (  0.0000000  1.0000000  0.0000000 )
                  (  0.0000000  0.0000000  1.0000000 )

      isym =  2     180 deg rotation - cart. axis [0,1,0]

[...]

     point group C_2  (2)
     there are  2 classes
     the character table:

       E     C2
A      1.00  1.00
B      1.00 -1.00

     the symmetry operations in each class and the name of the first element:

     E        1
          identity
     C2       2
          180 deg rotation - cart. axis [0,1,0]

   Cartesian axes

     site n.     atom                  positions (alat units)
         1        K      tau(   1) = (   0.0000000   0.8565933   0.0000000  )
         2        K      tau(   2) = (   0.5000000   0.0074483   0.0000000  )
         3        Mg     tau(   3) = (  -0.1677688   0.0062667   0.9493815  )
         4        Mg     tau(   4) = (  -0.1677688   0.5812187   0.9493815  )
         5        Mg     tau(   5) = (  -0.1677688   1.1494614   0.9493815  )
         6        Mg     tau(   6) = (   0.3322312   1.4456095   0.9493815  )
         7        Mg     tau(   7) = (   0.3322312   0.3041462   0.9493815  )
         8        Fe     tau(   8) = (   0.3322312   0.8656311   0.9493815  )
         9        Si     tau(   9) = (   0.0074576   0.2869188   0.4232316  )
        10        Si     tau(  10) = (   0.6570047   0.2869188   1.4755316  )
        11        Si     tau(  11) = (   0.6756678   1.4483840   1.4641887  )
        12        Si     tau(  12) = (  -0.0112054   1.4483840   0.4345744  )
        13        Si     tau(  13) = (   0.4878371   1.1556011   0.4292388  )
        14        Si     tau(  14) = (   0.1766253   1.1556011   1.4695243  )
        15        Al     tau(  15) = (   0.1575154   0.5781911   1.4729714  )
        16        Al     tau(  16) = (   0.5069470   0.5781911   0.4257917  )
        17        O      tau(  17) = (  -0.0033094   0.2849589   0.7317811  )
        18        O      tau(  18) = (   0.6677718   0.2849589   1.1669819  )
        19        O      tau(  19) = (   0.6700068   1.4447669   1.1582677  )
        20        O      tau(  20) = (  -0.0055444   1.4447669   0.7404954  )
        21        O      tau(  21) = (   0.4969556   1.1577125   0.7373130  )
        22        O      tau(  22) = (   0.1675068   1.1577125   1.1614501  )
        23        O      tau(  23) = (   0.1622961   0.5864089   1.1445608  )
        24        O      tau(  24) = (   0.5021662   0.5864089   0.7542023  )
        25        O      tau(  25) = (   0.2876626   0.3518049   0.3142569  )
        26        O      tau(  26) = (   0.3767998   0.3518049   1.5845062  )
        27        O      tau(  27) = (   0.9376616   1.7317226   0.3182256  )
        28        O      tau(  28) = (  -0.2731992   1.7317226   1.5805376  )
        29        O      tau(  29) = (   0.4020853   1.3483216   1.5778881  )
        30        O      tau(  30) = (   0.2623771   1.3483216   0.3208749  )
        31        O      tau(  31) = (   0.7607696   1.2686065   0.3182892  )
        32        O      tau(  32) = (  -0.0963072   1.2686065   1.5804740  )
        33        O      tau(  33) = (   0.4370265   0.8822185   0.3024616  )
        34        O      tau(  34) = (   0.2274359   0.8822185   1.5963015  )
        35        O      tau(  35) = (  -0.1380543   0.4821041   1.5952393  )
        36        O      tau(  36) = (   0.8025167   0.4821041   0.3035237  )
        37        O      tau(  37) = (   0.0069355   0.8719371   0.7508510  )
        38        O      tau(  38) = (   0.6575269   0.8719371   1.1479121  )
        39        O      tau(  39) = (   0.4982511   1.7360040   0.7541749  )
        40        O      tau(  40) = (   0.1662113   1.7360040   1.1445882  )
        41        H      tau(  41) = (   0.0274903   0.8546650   0.5696777  )
        42        H      tau(  42) = (   0.6369721   0.8546650   1.3290855  )
        43        H      tau(  43) = (   0.4939738   0.0238125   0.5730446  )
        44        H      tau(  44) = (   0.1704886   0.0238125   1.3257184  )

[...]
     The core correction contribution to forces
     atom    1 type  4   force =     0.00000000   -0.00143818   -0.00000000
     atom    2 type  4   force =     0.00000000    0.00156310    0.00000000
     atom    3 type  5   force =    -0.00000000    0.00019793    0.00000000
     atom    4 type  5   force =     0.00000000    0.00031534    0.00000000
     atom    5 type  5   force =     0.00000000   -0.00032513    0.00000000
     atom    6 type  5   force =    -0.00000000    0.00027383    0.00000000
     atom    7 type  5   force =     0.00000000    0.00046502    0.00000000
     atom    8 type  2   force =    -0.00000000   -0.00258309    0.00000000
     atom    9 type  7   force =     0.00248896    0.01061641    0.00605371
     atom   10 type  7   force =    -0.00248905    0.01061642   -0.00605358
     atom   11 type  7   force =    -0.00005385    0.00295250   -0.01353156
     atom   12 type  7   force =     0.00005386    0.00295250    0.01353156
     atom   13 type  7   force =    -0.00150040   -0.01157638    0.00935926
     atom   14 type  7   force =     0.00150040   -0.01157639   -0.00935922
     atom   15 type  1   force =    -0.00035683   -0.00164331   -0.00877387
     atom   16 type  1   force =     0.00035680   -0.00164331    0.00877391
     atom   17 type  6   force =    -0.00011365    0.00020225    0.00648603
     atom   18 type  6   force =     0.00011363    0.00020225   -0.00648603
     atom   19 type  6   force =    -0.00013031    0.00000675   -0.00702367
     atom   20 type  6   force =     0.00013030    0.00000675    0.00702367
     atom   21 type  6   force =     0.00099253    0.00095236    0.00638472
     atom   22 type  6   force =    -0.00099253    0.00095237   -0.00638472
     atom   23 type  6   force =    -0.00092633   -0.00130321   -0.00257232
     atom   24 type  6   force =     0.00092632   -0.00130322    0.00257233
     atom   25 type  6   force =     0.00469497   -0.00184227   -0.00578005
     atom   26 type  6   force =    -0.00469498   -0.00184227    0.00578004
     atom   27 type  6   force =    -0.00354312    0.00078150   -0.00707952
     atom   28 type  6   force =     0.00354309    0.00078150    0.00707957
     atom   29 type  6   force =    -0.00175031    0.00248731    0.00723314
     atom   30 type  6   force =     0.00175031    0.00248731   -0.00723314
     atom   31 type  6   force =     0.00094126   -0.00218073   -0.00745916
     atom   32 type  6   force =    -0.00094126   -0.00218074    0.00745919
     atom   33 type  6   force =    -0.00264062   -0.00343274   -0.00679785
     atom   34 type  6   force =     0.00264061   -0.00343274    0.00679788
     atom   35 type  6   force =     0.00106808    0.00417702    0.00638981
     atom   36 type  6   force =    -0.00106807    0.00417702   -0.00638984
     atom   37 type  6   force =    -0.00334731    0.00079028    0.01058937
     atom   38 type  6   force =     0.00334731    0.00079028   -0.01058937
     atom   39 type  6   force =    -0.00014996   -0.00125166    0.01115728
     atom   40 type  6   force =     0.00014994   -0.00125166   -0.01115728
     atom   41 type  3   force =     0.00000000    0.00000000    0.00000000
     atom   42 type  3   force =     0.00000000    0.00000000    0.00000000
     atom   43 type  3   force =     0.00000000    0.00000000    0.00000000
     atom   44 type  3   force =     0.00000000    0.00000000    0.00000000
     The Hubbard contrib.    to forces
     atom    1 type  4   force =     0.00000000    0.00000000    0.00000000
     atom    2 type  4   force =     0.00000000    0.00000000    0.00000000
     atom    3 type  5   force =     0.00000000    0.00000000    0.00000000
     atom    4 type  5   force =     0.00000000    0.00000000    0.00000000
     atom    5 type  5   force =     0.00000000    0.00000000    0.00000000
     atom    6 type  5   force =     0.00000000    0.00000000    0.00000000
     atom    7 type  5   force =     0.00000000    0.00000000    0.00000000
     atom    8 type  2   force =     0.00000000    0.00000000    0.00000000
     atom    9 type  7   force =     0.00000000    0.00000000    0.00000000
     atom   10 type  7   force =     0.00000000    0.00000000    0.00000000
     atom   11 type  7   force =     0.00000000    0.00000000    0.00000000
     atom   12 type  7   force =     0.00000000    0.00000000    0.00000000
     atom   13 type  7   force =     0.00000000    0.00000000    0.00000000
     atom   14 type  7   force =     0.00000000    0.00000000    0.00000000
     atom   15 type  1   force =     0.00000000    0.00000000    0.00000000
     atom   16 type  1   force =     0.00000000    0.00000000    0.00000000
     atom   17 type  6   force =     0.00000000    0.00000000    0.00000000
     atom   18 type  6   force =     0.00000000    0.00000000    0.00000000
     atom   19 type  6   force =     0.00000000    0.00000000    0.00000000
     atom   20 type  6   force =     0.00000000    0.00000000    0.00000000
     atom   21 type  6   force =     0.00000000    0.00000000    0.00000000
     atom   22 type  6   force =     0.00000000    0.00000000    0.00000000
     atom   23 type  6   force =     0.00000000    0.00000000    0.00000000
     atom   24 type  6   force =     0.00000000    0.00000000    0.00000000
     atom   25 type  6   force =     0.00000000    0.00000000    0.00000000
     atom   26 type  6   force =     0.00000000    0.00000000    0.00000000
     atom   27 type  6   force =     0.00000000    0.00000000    0.00000000
     atom   28 type  6   force =     0.00000000    0.00000000    0.00000000
     atom   29 type  6   force =     0.00000000    0.00000000    0.00000000
     atom   30 type  6   force =     0.00000000    0.00000000    0.00000000
     atom   31 type  6   force =     0.00000000    0.00000000    0.00000000
     atom   32 type  6   force =     0.00000000    0.00000000    0.00000000
     atom   33 type  6   force =     0.00000000    0.00000000    0.00000000
     atom   34 type  6   force =     0.00000000    0.00000000    0.00000000
     atom   35 type  6   force =     0.00000000    0.00000000    0.00000000
     atom   36 type  6   force =     0.00000000    0.00000000    0.00000000
     atom   37 type  6   force =     0.00000000    0.00000000    0.00000000
     atom   38 type  6   force =     0.00000000    0.00000000    0.00000000
     atom   39 type  6   force =     0.00000000    0.00000000    0.00000000
     atom   40 type  6   force =     0.00000000    0.00000000    0.00000000
     atom   41 type  3   force =     0.00000000    0.00000000    0.00000000
     atom   42 type  3   force =     0.00000000    0.00000000    0.00000000
     atom   43 type  3   force =     0.00000000    0.00000000    0.00000000
     atom   44 type  3   force =     0.00000000    0.00000000    0.00000000
     The SCF correction term to forces
     atom    1 type  4   force =    -0.00000000    0.00000176   -0.00000000
     atom    2 type  4   force =     0.00000000   -0.00000130    0.00000000
     atom    3 type  5   force =     0.00000000   -0.00000809   -0.00000000
     atom    4 type  5   force =    -0.00000000    0.00001262    0.00000000
     atom    5 type  5   force =     0.00000000   -0.00000392   -0.00000000
     atom    6 type  5   force =    -0.00000000   -0.00001825   -0.00000000
     atom    7 type  5   force =     0.00000000    0.00001045    0.00000000
     atom    8 type  2   force =     0.00000000   -0.00000982   -0.00000000
     atom    9 type  7   force =     0.00000262    0.00000541    0.00000630
     atom   10 type  7   force =    -0.00000262    0.00000541   -0.00000630
     atom   11 type  7   force =    -0.00000110   -0.00000290   -0.00001391
     atom   12 type  7   force =     0.00000110   -0.00000290    0.00001391
     atom   13 type  7   force =    -0.00000063   -0.00000104    0.00002147
     atom   14 type  7   force =     0.00000063   -0.00000104   -0.00002147
     atom   15 type  1   force =     0.00000019   -0.00000099   -0.00001322
     atom   16 type  1   force =    -0.00000019   -0.00000099    0.00001322
     atom   17 type  6   force =     0.00000344    0.00000628   -0.00000671
     atom   18 type  6   force =    -0.00000344    0.00000628    0.00000671
     atom   19 type  6   force =    -0.00000094   -0.00001161    0.00000539
     atom   20 type  6   force =     0.00000094   -0.00001161   -0.00000539
     atom   21 type  6   force =    -0.00000207   -0.00000641    0.00000365
     atom   22 type  6   force =     0.00000207   -0.00000641   -0.00000365
     atom   23 type  6   force =     0.00000377    0.00001114   -0.00001697
     atom   24 type  6   force =    -0.00000377    0.00001114    0.00001697
     atom   25 type  6   force =    -0.00001141   -0.00000160    0.00002234
     atom   26 type  6   force =     0.00001141   -0.00000160   -0.00002234
     atom   27 type  6   force =     0.00000754    0.00000265    0.00003092
     atom   28 type  6   force =    -0.00000754    0.00000265   -0.00003092
     atom   29 type  6   force =    -0.00000013   -0.00000695   -0.00003893
     atom   30 type  6   force =     0.00000013   -0.00000695    0.00003893
     atom   31 type  6   force =    -0.00000378   -0.00000066    0.00004073
     atom   32 type  6   force =     0.00000378   -0.00000066   -0.00004073
     atom   33 type  6   force =     0.00000354    0.00001276    0.00003640
     atom   34 type  6   force =    -0.00000354    0.00001276   -0.00003640
     atom   35 type  6   force =    -0.00000793   -0.00000688   -0.00002356
     atom   36 type  6   force =     0.00000793   -0.00000688    0.00002356
     atom   37 type  6   force =     0.00000275    0.00000330    0.00001689
     atom   38 type  6   force =    -0.00000275    0.00000330   -0.00001689
     atom   39 type  6   force =    -0.00000151   -0.00000359    0.00000791
     atom   40 type  6   force =     0.00000151   -0.00000359   -0.00000791
     atom   41 type  3   force =     0.00000046    0.00000022    0.00000103
     atom   42 type  3   force =    -0.00000046    0.00000022   -0.00000103
     atom   43 type  3   force =    -0.00000032   -0.00000001    0.00000006
     atom   44 type  3   force =     0.00000032   -0.00000001   -0.00000006

     DFT-D3 dispersion contribution to forces:
     atom    1 type  4   force =    -0.00000000    0.00090150    0.00000000
     atom    2 type  4   force =    -0.00000000   -0.00072215    0.00000000
     atom    3 type  5   force =    -0.00000000    0.00027647   -0.00000000
     atom    4 type  5   force =    -0.00000000    0.00094337    0.00000000
     atom    5 type  5   force =    -0.00000000   -0.00153706    0.00000000
     atom    6 type  5   force =     0.00000000    0.00084944   -0.00000000
     atom    7 type  5   force =     0.00000000   -0.00002833   -0.00000000
     atom    8 type  2   force =     0.00000000   -0.00020274    0.00000000
     atom    9 type  7   force =     0.00001842   -0.00015756   -0.00029802
     atom   10 type  7   force =    -0.00001842   -0.00015756    0.00029802
     atom   11 type  7   force =     0.00004224    0.00007055    0.00018300
     atom   12 type  7   force =    -0.00004224    0.00007055   -0.00018300
     atom   13 type  7   force =     0.00002815    0.00003356    0.00002874
     atom   14 type  7   force =    -0.00002815    0.00003356   -0.00002874
     atom   15 type  1   force =    -0.00005478    0.00014916   -0.00114587
     atom   16 type  1   force =     0.00005478    0.00014916    0.00114587
     atom   17 type  6   force =     0.00001483    0.00004756    0.00048165
     atom   18 type  6   force =    -0.00001483    0.00004756   -0.00048165
     atom   19 type  6   force =    -0.00001126    0.00003325   -0.00039912
     atom   20 type  6   force =     0.00001126    0.00003324    0.00039912
     atom   21 type  6   force =    -0.00004025   -0.00003374    0.00042775
     atom   22 type  6   force =     0.00004025   -0.00003374   -0.00042774
     atom   23 type  6   force =    -0.00004800   -0.00011570    0.00013081
     atom   24 type  6   force =     0.00004800   -0.00011570   -0.00013081
     atom   25 type  6   force =    -0.00018959    0.00100775    0.00028759
     atom   26 type  6   force =     0.00018959    0.00100775   -0.00028759
     atom   27 type  6   force =     0.00083188    0.00007207    0.00020699
     atom   28 type  6   force =    -0.00083188    0.00007207   -0.00020699
     atom   29 type  6   force =     0.00037173   -0.00058154   -0.00003993
     atom   30 type  6   force =    -0.00037173   -0.00058153    0.00003993
     atom   31 type  6   force =    -0.00023774    0.00040803   -0.00000657
     atom   32 type  6   force =     0.00023774    0.00040803    0.00000656
     atom   33 type  6   force =     0.00095158   -0.00042934    0.00043429
     atom   34 type  6   force =    -0.00095158   -0.00042934   -0.00043429
     atom   35 type  6   force =     0.00064897   -0.00053540   -0.00043036
     atom   36 type  6   force =    -0.00064897   -0.00053540    0.00043036
     atom   37 type  6   force =    -0.00012632   -0.00000981   -0.00053254
     atom   38 type  6   force =     0.00012632   -0.00000981    0.00053254
     atom   39 type  6   force =     0.00002757    0.00003694   -0.00050303
     atom   40 type  6   force =    -0.00002757    0.00003694    0.00050303
     atom   41 type  3   force =    -0.00032197    0.00015702   -0.00023090
     atom   42 type  3   force =     0.00032197    0.00015702    0.00023090
     atom   43 type  3   force =     0.00001275   -0.00039305   -0.00024644
     atom   44 type  3   force =    -0.00001275   -0.00039305    0.00024644

     Total force =     0.004456     Total SCF correction =     0.000138

     DFT-D3 dispersion Force =     0.004587

     Computing stress (Cartesian axis) and pressure

          total   stress  (Ry/bohr**3)                   (kbar)     P=       -0.28
  -0.00000380   0.00000000   0.00000108           -0.56        0.00        0.16
   0.00000000  -0.00000057   0.00000000            0.00       -0.08        0.00
   0.00000108   0.00000000  -0.00000144            0.16        0.00       -0.21

     kinetic stress (kbar)  20339.07      0.00     16.95
                                0.00  20342.03      0.00
                               16.95      0.00  20055.50

     local   stress (kbar) -42380.33      0.00    117.23
                                0.00 -42037.82      0.00
                              117.23      0.00  21020.55

     nonloc. stress (kbar)   3829.51      0.00      0.26
                                0.00   3830.67      0.00
                                0.26      0.00   3812.16

     hartree stress (kbar)  23798.66     -0.00    -49.52
                               -0.00  23643.24     -0.00
                              -49.52     -0.00  -7196.93

     exc-cor stress (kbar)  -2846.99     -0.00     -0.12
                               -0.00  -2847.30     -0.00
                               -0.12     -0.00  -2844.12

     corecor stress (kbar)  -1877.47      0.00     -0.09
                                0.00  -1877.56      0.00
                               -0.09      0.00  -1879.06

     ewald   stress (kbar)   -848.02      0.00    -84.69
                                0.00  -1038.10     -0.00
                              -84.69     -0.00 -32957.21

     hubbard stress (kbar)      0.00      0.00      0.00
                                0.00      0.00      0.00
                                0.00      0.00      0.00

     DFT-D   stress (kbar)    -14.98      0.00      0.14
                                0.00    -15.25      0.00
                                0.14      0.00    -11.09

     XDM     stress (kbar)      0.00      0.00      0.00
                                0.00      0.00      0.00
                                0.00      0.00      0.00

     dft-nl  stress (kbar)      0.00      0.00      0.00
                                0.00      0.00      0.00
                                0.00      0.00      0.00

     TS-vdW  stress (kbar)      0.00      0.00      0.00
                                0.00      0.00      0.00
                                0.00      0.00      0.00

     MDB     stress (kbar)      0.00      0.00      0.00
                                0.00      0.00      0.00
                                0.00      0.00      0.00

     3D-RISM stress (kbar)      0.00      0.00      0.00
                                0.00      0.00      0.00
                                0.00      0.00      0.00

     Writing all to output data dir ./temp/phl-fe1-nspin-dftd3.save/ :
     XML data file, charge density, pseudopotentials, collected wavefunctions

     General routines

     Parallel routines

     PAW routines

   This run was terminated on:   0:21:51  31Dec2024

   JOB DONE.