     Program PWSCF v.7.3.1 starts on 20Jan2025 at 15:16:49

     Reading input from vc_relax.in

     Current dimensions of program PWSCF are:
     Max number of different atomic species (ntypx) = 10
     Max number of k-points (npk) =  40000
     Max angular momentum in pseudopotentials (lmaxx) =  4
     file Al.pbe-n-kjpaw_psl.1.0.0.UPF: wavefunction(s)  3S 3P renormalized
     file Fe.pbe-spn-kjpaw_psl.1.0.0.UPF: wavefunction(s)  3P 3D renormalized
     file H.pbe-kjpaw_psl.1.0.0.UPF: wavefunction(s)  1S renormalized
     file K.pbe-spn-kjpaw_psl.1.0.0.UPF: wavefunction(s)  3S renormalized
     file Mg.pbe-spnl-kjpaw_psl.1.0.0.UPF: wavefunction(s)  2P renormalized
     file O.pbe-n-kjpaw_psl.1.0.0.UPF: wavefunction(s)  2S 2P renormalized
     file Si.pbe-n-kjpaw_psl.1.0.0.UPF: wavefunction(s)  3S 3P renormalized

     R & G space division:  proc/nbgrp/npool/nimage =       6
     Subspace diagonalization in iterative solution of the eigenvalue problem:
     one sub-group per band group will be used

     Using Slab Decomposition

     bravais-lattice index     =          -12
     lattice parameter (alat)  =      10.0136  a.u.
     unit-cell volume          =    3303.4414 (a.u.)^3
     number of atoms/cell      =           44
     number of atomic types    =            7
     number of electrons       =       262.00
     number of Kohn-Sham states=          157
     kinetic-energy cutoff     =      60.0000  Ry
     charge density cutoff     =     480.0000  Ry
     scf convergence threshold =      1.0E-06
     mixing beta               =       0.7000
     number of iterations used =            8  plain     mixing
     energy convergence thresh.=      1.0E-04
     force convergence thresh. =      1.0E-03
     press convergence thresh. =      5.0E-01
     Exchange-correlation= SLA  PW   PBX  PBC
                           (   1   4   3   4   0   0   0)
     nstep                     =           50

     celldm(1)=  10.013640  celldm(2)=   1.735306  celldm(3)=   1.926511
     celldm(4)=   0.000000  celldm(5)=  -0.177565  celldm(6)=   0.000000

     crystal axes: (cart. coord. in units of alat)
               a(1) = (   1.000000   0.000000   0.000000 )
               a(2) = (   0.000000   1.735306   0.000000 )
               a(3) = (  -0.342081   0.000000   1.895896 )

     reciprocal axes: (cart. coord. in units 2 pi/alat)
               b(1) = (  1.000000 -0.000000  0.180432 )
               b(2) = (  0.000000  0.576267 -0.000000 )
               b(3) = (  0.000000  0.000000  0.527455 )

     PseudoPot. # 1 for Al read from file:
     ./../../../pseudos/Al.pbe-n-kjpaw_psl.1.0.0.UPF
     MD5 check sum: 502b6b27b9c6270cab5dd1084b96fa6d
     Pseudo is Projector augmented-wave + core cor, Zval =  3.0
     Generated using &quot;atomic&quot; code by A. Dal Corso  v.6.3
     Shape of augmentation charge: PSQ
     Using radial grid of 1135 points,  6 beta functions with:
                l(1) =   0
                l(2) =   0
                l(3) =   1
                l(4) =   1
                l(5) =   2
                l(6) =   2
     Q(r) pseudized with 0 coefficients

     PseudoPot. # 2 for Fe read from file:
     ./../../../pseudos/Fe.pbe-spn-kjpaw_psl.1.0.0.UPF
     MD5 check sum: fc81f059e5c5069939230b1155715ae8
     Pseudo is Projector augmented-wave + core cor, Zval = 16.0
     Generated using &quot;atomic&quot; code by A. Dal Corso  v.6.3
     Shape of augmentation charge: PSQ
     Using radial grid of 1191 points,  6 beta functions with:
                l(1) =   0
                l(2) =   0
                l(3) =   1
                l(4) =   1
                l(5) =   2
                l(6) =   2
     Q(r) pseudized with 0 coefficients

     PseudoPot. # 3 for H  read from file:
     ./../../../pseudos/H.pbe-kjpaw_psl.1.0.0.UPF
     MD5 check sum: d81a744832360e4a8af0b0b5b123bc2a
     Pseudo is Projector augmented-wave, Zval =  1.0
     Generated using &quot;atomic&quot; code by A. Dal Corso  v.6.3MaX
     Shape of augmentation charge: PSQ
     Using radial grid of  929 points,  2 beta functions with:
                l(1) =   0
                l(2) =   0
     Q(r) pseudized with 0 coefficients

     PseudoPot. # 4 for K  read from file:
     ./../../../pseudos/K.pbe-spn-kjpaw_psl.1.0.0.UPF
     MD5 check sum: 34cc42130a09071ebe376fd42eb21491
     Pseudo is Projector augmented-wave + core cor, Zval =  9.0
     Generated using &quot;atomic&quot; code by A. Dal Corso  v.6.2.2
     Shape of augmentation charge: PSQ
     Using radial grid of 1165 points,  6 beta functions with:
                l(1) =   0
                l(2) =   0
                l(3) =   1
                l(4) =   1
                l(5) =   2
                l(6) =   2
     Q(r) pseudized with 0 coefficients

     PseudoPot. # 5 for Mg read from file:
     ./../../../pseudos/Mg.pbe-spnl-kjpaw_psl.1.0.0.UPF
     MD5 check sum: fda14e0d92a6a9a5ebed782e5a4b3067
     Pseudo is Projector augmented-wave + core cor, Zval = 10.0
     Generated using &quot;atomic&quot; code by A. Dal Corso  v.6.3
     Shape of augmentation charge: PSQ
     Using radial grid of 1129 points,  4 beta functions with:
                l(1) =   0
                l(2) =   0
                l(3) =   1
                l(4) =   1
     Q(r) pseudized with 0 coefficients

     PseudoPot. # 6 for O  read from file:
     ./../../../pseudos/O.pbe-n-kjpaw_psl.1.0.0.UPF
     MD5 check sum: e99d9cef9b487d1ca56f5b95ecd0fd7a
     Pseudo is Projector augmented-wave + core cor, Zval =  6.0
     Generated using &quot;atomic&quot; code by A. Dal Corso  v.6.3
     Shape of augmentation charge: PSQ
     Using radial grid of 1095 points,  4 beta functions with:
                l(1) =   0
                l(2) =   0
                l(3) =   1
                l(4) =   1
     Q(r) pseudized with 0 coefficients

     PseudoPot. # 7 for Si read from file:
     ./../../../pseudos/Si.pbe-n-kjpaw_psl.1.0.0.UPF
     MD5 check sum: c39c59da582df4a0d9f10159256ea34e
     Pseudo is Projector augmented-wave + core cor, Zval =  4.0
     Generated using &quot;atomic&quot; code by A. Dal Corso  v.6.3
     Shape of augmentation charge: PSQ
     Using radial grid of 1141 points,  6 beta functions with:
                l(1) =   0
                l(2) =   0
                l(3) =   1
                l(4) =   1
                l(5) =   2
                l(6) =   2
     Q(r) pseudized with 0 coefficients

     atomic species   valence    mass     pseudopotential
     Al                3.00    26.98154     Al( 1.00)
     Fe               16.00    55.84500     Fe( 1.00)
     H                 1.00     1.00794     H ( 1.00)
     K                 9.00    39.09830     K ( 1.00)
     Mg               10.00    24.30500     Mg( 1.00)
     O                 6.00    15.99940     O ( 1.00)
     Si                4.00    28.08550     Si( 1.00)

     Starting magnetic structure
     atomic species   magnetization
     Al              0.000
     Fe              0.300
     H               0.000
     K               0.000
     Mg              0.000
     O               0.000
     Si              0.000

      2 Sym. Ops. (no inversion) found

                                    s                        frac. trans.

      isym =  1     identity

 cryst.   s( 1) = (     1          0          0      )
                  (     0          1          0      )
                  (     0          0          1      )

 cart.    s( 1) = (  1.0000000  0.0000000 -0.0000000 )
                  (  0.0000000  1.0000000  0.0000000 )
                  (  0.0000000  0.0000000  1.0000000 )

      isym =  2     180 deg rotation - cart. axis [0,1,0]

[...]

     point group C_2  (2)
     there are  2 classes
     the character table:

       E     C2
A      1.00  1.00
B      1.00 -1.00

     the symmetry operations in each class and the name of the first element:

     E        1
          identity
     C2       2
          180 deg rotation - cart. axis [0,1,0]

   Cartesian axes

     site n.     atom                  positions (alat units)
         1        K      tau(   1) = (   0.0000000   0.8557423   0.0000000  )
         2        K      tau(   2) = (   0.5000000   0.0064404   0.0000000  )
         3        Mg     tau(   3) = (  -0.1710407   0.0077025   0.9479482  )
         4        Mg     tau(   4) = (  -0.1710407   0.5726035   0.9479482  )
         5        Mg     tau(   5) = (   0.3289593   0.8548503   0.9479482  )
         6        Mg     tau(   6) = (   0.3289593   1.4489038   0.9479482  )
         7        Mg     tau(   7) = (   0.3289593   0.2984157   0.9479482  )
         8        Si     tau(   8) = (   0.0074834   0.2867109   0.4202106  )
         9        Si     tau(   9) = (   0.6504353   0.2867109   1.4756859  )
        10        Si     tau(  10) = (   0.6730964   1.4491048   1.4646485  )
        11        Si     tau(  11) = (  -0.0151777   1.4491048   0.4312479  )
        12        Si     tau(  12) = (   0.4823544   1.1562662   0.4264580  )
        13        Si     tau(  13) = (   0.1755643   1.1562662   1.4694384  )
        14        Al     tau(  14) = (   0.1500068   0.5743001   1.4722646  )
        15        Al     tau(  15) = (   0.5079119   0.5743001   0.4236318  )
        16        O      tau(  16) = (  -0.0040541   0.2828099   0.7282598  )
        17        O      tau(  17) = (   0.6619728   0.2828099   1.1676367  )
        18        O      tau(  18) = (   0.6634981   1.4520095   1.1590155  )
        19        O      tau(  19) = (  -0.0055794   1.4520095   0.7368809  )
        20        O      tau(  20) = (   0.4802881   1.1601149   0.7329838  )
        21        O      tau(  21) = (   0.1776306   1.1601149   1.1629126  )
        22        O      tau(  22) = (   0.1541044   0.5773399   1.1456050  )
        23        O      tau(  23) = (   0.5038143   0.5773399   0.7502913  )
        24        O      tau(  24) = (   0.2876625   0.3499134   0.3118985  )
        25        O      tau(  25) = (   0.3702562   0.3499134   1.5839978  )
        26        O      tau(  26) = (   0.9359917   1.7316834   0.3143192  )
        27        O      tau(  27) = (  -0.2780730   1.7316834   1.5815772  )
        28        O      tau(  28) = (   0.4028463   1.3442806   1.5808683  )
        29        O      tau(  29) = (   0.2550724   1.3442806   0.3150281  )
        30        O      tau(  30) = (   0.7550078   1.2708197   0.3189730  )
        31        O      tau(  31) = (  -0.0970891   1.2708197   1.5769234  )
        32        O      tau(  32) = (   0.4402862   0.8802735   0.3036527  )
        33        O      tau(  33) = (   0.2176325   0.8802735   1.5922438  )
        34        O      tau(  34) = (  -0.1458655   0.4821484   1.5953475  )
        35        O      tau(  35) = (   0.8037842   0.4821484   0.3005489  )
        36        O      tau(  36) = (  -0.0025240   0.8655989   0.7459654  )
        37        O      tau(  37) = (   0.6604427   0.8655989   1.1499311  )
        38        O      tau(  38) = (   0.4971433   1.7340410   0.7530460  )
        39        O      tau(  39) = (   0.1607754   1.7340410   1.1428503  )
        40        H      tau(  40) = (  -0.0145099   0.8644445   0.5639698  )
[...]
     The core correction contribution to forces
     atom    1 type  4   force =     0.00000000   -0.00154820   -0.00000000
     atom    2 type  4   force =    -0.00000000    0.00159633   -0.00000000
     atom    3 type  5   force =     0.00000000    0.00020017   -0.00000000
     atom    4 type  5   force =    -0.00000000    0.00020361   -0.00000000
     atom    5 type  5   force =     0.00000000   -0.00077435   -0.00000000
     atom    6 type  5   force =     0.00000000    0.00025715    0.00000000
     atom    7 type  5   force =    -0.00000000    0.00035953   -0.00000000
     atom    8 type  7   force =     0.00208226    0.01041262    0.00592269
     atom    9 type  7   force =    -0.00208226    0.01041263   -0.00592261
     atom   10 type  7   force =    -0.00006849    0.00381420   -0.01331226
     atom   11 type  7   force =     0.00006847    0.00381420    0.01331226
     atom   12 type  7   force =    -0.00179609   -0.01230070    0.01156475
     atom   13 type  7   force =     0.00179609   -0.01230070   -0.01156475
     atom   14 type  1   force =    -0.00066126   -0.00198889   -0.00992561
     atom   15 type  1   force =     0.00066128   -0.00198889    0.00992555
     atom   16 type  6   force =    -0.00012076    0.00013938    0.00649902
     atom   17 type  6   force =     0.00012076    0.00013938   -0.00649902
     atom   18 type  6   force =    -0.00076327    0.00080424   -0.00672857
     atom   19 type  6   force =     0.00076329    0.00080424    0.00672857
     atom   20 type  6   force =    -0.00082479   -0.00015289    0.00662483
     atom   21 type  6   force =     0.00082479   -0.00015289   -0.00662483
     atom   22 type  6   force =     0.00009902    0.00007076   -0.00320617
     atom   23 type  6   force =    -0.00009903    0.00007076    0.00320616
     atom   24 type  6   force =     0.00457799   -0.00174712   -0.00577829
     atom   25 type  6   force =    -0.00457799   -0.00174712    0.00577826
     atom   26 type  6   force =    -0.00331182    0.00088961   -0.00718488
     atom   27 type  6   force =     0.00331184    0.00088961    0.00718484
     atom   28 type  6   force =    -0.00142630    0.00194878    0.00750853
     atom   29 type  6   force =     0.00142630    0.00194878   -0.00750854
     atom   30 type  6   force =     0.00070462   -0.00190647   -0.00727116
     atom   31 type  6   force =    -0.00070462   -0.00190646    0.00727118
     atom   32 type  6   force =    -0.00207490   -0.00356721   -0.00662098
     atom   33 type  6   force =     0.00207490   -0.00356721    0.00662099
     atom   34 type  6   force =     0.00114713    0.00411725    0.00639824
     atom   35 type  6   force =    -0.00114713    0.00411726   -0.00639822
     atom   36 type  6   force =     0.00196931   -0.00070502    0.01096898
     atom   37 type  6   force =    -0.00196930   -0.00070502   -0.01096901
     atom   38 type  6   force =    -0.00002181   -0.00130779    0.01113943
     atom   39 type  6   force =     0.00002180   -0.00130778   -0.01113940
     atom   40 type  3   force =     0.00000000    0.00000000    0.00000000
     atom   41 type  3   force =     0.00000000    0.00000000    0.00000000
     atom   42 type  3   force =     0.00000000    0.00000000    0.00000000
     atom   43 type  3   force =     0.00000000    0.00000000    0.00000000
     atom   44 type  2   force =     0.00000000   -0.00452396   -0.00000000
     The Hubbard contrib.    to forces
     atom    1 type  4   force =     0.00000000    0.00000000    0.00000000
     atom    2 type  4   force =     0.00000000    0.00000000    0.00000000
     atom    3 type  5   force =     0.00000000    0.00000000    0.00000000
     atom    4 type  5   force =     0.00000000    0.00000000    0.00000000
     atom    5 type  5   force =     0.00000000    0.00000000    0.00000000
     atom    6 type  5   force =     0.00000000    0.00000000    0.00000000
     atom    7 type  5   force =     0.00000000    0.00000000    0.00000000
     atom    8 type  7   force =     0.00000000    0.00000000    0.00000000
     atom    9 type  7   force =     0.00000000    0.00000000    0.00000000
     atom   10 type  7   force =     0.00000000    0.00000000    0.00000000
     atom   11 type  7   force =     0.00000000    0.00000000    0.00000000
     atom   12 type  7   force =     0.00000000    0.00000000    0.00000000
     atom   13 type  7   force =     0.00000000    0.00000000    0.00000000
     atom   14 type  1   force =     0.00000000    0.00000000    0.00000000
     atom   15 type  1   force =     0.00000000    0.00000000    0.00000000
     atom   16 type  6   force =     0.00000000    0.00000000    0.00000000
     atom   17 type  6   force =     0.00000000    0.00000000    0.00000000
     atom   18 type  6   force =     0.00000000    0.00000000    0.00000000
     atom   19 type  6   force =     0.00000000    0.00000000    0.00000000
     atom   20 type  6   force =     0.00000000    0.00000000    0.00000000
     atom   21 type  6   force =     0.00000000    0.00000000    0.00000000
     atom   22 type  6   force =     0.00000000    0.00000000    0.00000000
     atom   23 type  6   force =     0.00000000    0.00000000    0.00000000
     atom   24 type  6   force =     0.00000000    0.00000000    0.00000000
     atom   25 type  6   force =     0.00000000    0.00000000    0.00000000
     atom   26 type  6   force =     0.00000000    0.00000000    0.00000000
     atom   27 type  6   force =     0.00000000    0.00000000    0.00000000
     atom   28 type  6   force =     0.00000000    0.00000000    0.00000000
     atom   29 type  6   force =     0.00000000    0.00000000    0.00000000
     atom   30 type  6   force =     0.00000000    0.00000000    0.00000000
     atom   31 type  6   force =     0.00000000    0.00000000    0.00000000
     atom   32 type  6   force =     0.00000000    0.00000000    0.00000000
     atom   33 type  6   force =     0.00000000    0.00000000    0.00000000
     atom   34 type  6   force =     0.00000000    0.00000000    0.00000000
     atom   35 type  6   force =     0.00000000    0.00000000    0.00000000
     atom   36 type  6   force =     0.00000000    0.00000000    0.00000000
     atom   37 type  6   force =     0.00000000    0.00000000    0.00000000
     atom   38 type  6   force =     0.00000000    0.00000000    0.00000000
     atom   39 type  6   force =     0.00000000    0.00000000    0.00000000
     atom   40 type  3   force =     0.00000000    0.00000000    0.00000000
     atom   41 type  3   force =     0.00000000    0.00000000    0.00000000
     atom   42 type  3   force =     0.00000000    0.00000000    0.00000000
     atom   43 type  3   force =     0.00000000    0.00000000    0.00000000
     atom   44 type  2   force =     0.00000000    0.00000000    0.00000000
     The SCF correction term to forces
     atom    1 type  4   force =    -0.00000000   -0.00000877    0.00000000
     atom    2 type  4   force =     0.00000000    0.00000816   -0.00000000
     atom    3 type  5   force =    -0.00000000    0.00001424   -0.00000000
     atom    4 type  5   force =    -0.00000000   -0.00003528   -0.00000000
     atom    5 type  5   force =     0.00000000   -0.00002949    0.00000000
     atom    6 type  5   force =    -0.00000000    0.00003446    0.00000000
     atom    7 type  5   force =     0.00000000   -0.00000172   -0.00000000
     atom    8 type  7   force =     0.00000072    0.00000520    0.00000467
     atom    9 type  7   force =    -0.00000072    0.00000520   -0.00000467
     atom   10 type  7   force =    -0.00000051    0.00000533   -0.00000505
     atom   11 type  7   force =     0.00000051    0.00000533    0.00000505
     atom   12 type  7   force =    -0.00000137   -0.00000563   -0.00000160
     atom   13 type  7   force =     0.00000137   -0.00000563    0.00000160
     atom   14 type  1   force =    -0.00000025   -0.00000294   -0.00000330
     atom   15 type  1   force =     0.00000025   -0.00000294    0.00000330
     atom   16 type  6   force =    -0.00000167    0.00000339    0.00000050
     atom   17 type  6   force =     0.00000167    0.00000339   -0.00000050
     atom   18 type  6   force =     0.00000109    0.00001404    0.00001101
     atom   19 type  6   force =    -0.00000109    0.00001404   -0.00001101
     atom   20 type  6   force =    -0.00000348    0.00000461   -0.00002650
     atom   21 type  6   force =     0.00000348    0.00000461    0.00002650
     atom   22 type  6   force =    -0.00000192   -0.00001990    0.00000000
     atom   23 type  6   force =     0.00000192   -0.00001990   -0.00000000
     atom   24 type  6   force =     0.00000299    0.00000021   -0.00000303
     atom   25 type  6   force =    -0.00000299    0.00000021    0.00000303
     atom   26 type  6   force =     0.00000014   -0.00000104    0.00000250
     atom   27 type  6   force =    -0.00000014   -0.00000104   -0.00000250
     atom   28 type  6   force =     0.00000261    0.00000464    0.00000003
     atom   29 type  6   force =    -0.00000261    0.00000464   -0.00000003
     atom   30 type  6   force =     0.00000074    0.00000667   -0.00000019
     atom   31 type  6   force =    -0.00000074    0.00000667    0.00000019
     atom   32 type  6   force =     0.00000175   -0.00000731   -0.00001044
     atom   33 type  6   force =    -0.00000175   -0.00000731    0.00001044
     atom   34 type  6   force =     0.00000146   -0.00000053    0.00000490
     atom   35 type  6   force =    -0.00000146   -0.00000053   -0.00000490
     atom   36 type  6   force =     0.00000026   -0.00001927   -0.00001010
     atom   37 type  6   force =    -0.00000026   -0.00001927    0.00001010
     atom   38 type  6   force =     0.00000018    0.00001619   -0.00000778
     atom   39 type  6   force =    -0.00000018    0.00001619    0.00000778
     atom   40 type  3   force =     0.00000007   -0.00000184   -0.00000060
     atom   41 type  3   force =    -0.00000007   -0.00000184    0.00000060
     atom   42 type  3   force =     0.00000012    0.00000073    0.00000595
     atom   43 type  3   force =    -0.00000012    0.00000073   -0.00000595
     atom   44 type  2   force =     0.00000000    0.00003500   -0.00000000

     DFT-D3 dispersion contribution to forces:
     atom    1 type  4   force =    -0.00000000    0.00101898   -0.00000000
     atom    2 type  4   force =     0.00000000   -0.00082019   -0.00000000
     atom    3 type  5   force =     0.00000000    0.00023351   -0.00000000
     atom    4 type  5   force =     0.00000000    0.00071226   -0.00000000
     atom    5 type  5   force =    -0.00000000   -0.00053080    0.00000000
     atom    6 type  5   force =    -0.00000000    0.00106839    0.00000000
     atom    7 type  5   force =    -0.00000000   -0.00018407    0.00000000
     atom    8 type  7   force =     0.00006757   -0.00006761   -0.00029601
     atom    9 type  7   force =    -0.00006757   -0.00006761    0.00029601
     atom   10 type  7   force =     0.00015943   -0.00001289    0.00006118
     atom   11 type  7   force =    -0.00015943   -0.00001289   -0.00006118
     atom   12 type  7   force =     0.00010169    0.00015454   -0.00008864
     atom   13 type  7   force =    -0.00010169    0.00015454    0.00008864
     atom   14 type  1   force =     0.00012547    0.00002256   -0.00085590
     atom   15 type  1   force =    -0.00012546    0.00002256    0.00085590
     atom   16 type  6   force =    -0.00001465    0.00005902    0.00045785
     atom   17 type  6   force =     0.00001465    0.00005902   -0.00045785
     atom   18 type  6   force =     0.00004465   -0.00001352   -0.00047334
     atom   19 type  6   force =    -0.00004465   -0.00001352    0.00047334
     atom   20 type  6   force =     0.00008694   -0.00004220    0.00045115
     atom   21 type  6   force =    -0.00008694   -0.00004220   -0.00045115
     atom   22 type  6   force =    -0.00000276   -0.00006269    0.00008637
     atom   23 type  6   force =     0.00000276   -0.00006269   -0.00008637
     atom   24 type  6   force =    -0.00018538    0.00100694    0.00030487
     atom   25 type  6   force =     0.00018538    0.00100694   -0.00030487
     atom   26 type  6   force =     0.00087034    0.00009122    0.00019395
     atom   27 type  6   force =    -0.00087034    0.00009122   -0.00019395
     atom   28 type  6   force =     0.00031930   -0.00046266    0.00002748
     atom   29 type  6   force =    -0.00031930   -0.00046266   -0.00002748
     atom   30 type  6   force =    -0.00015498    0.00023538   -0.00009062
     atom   31 type  6   force =     0.00015498    0.00023538    0.00009062
     atom   32 type  6   force =     0.00093975   -0.00045295    0.00041992
     atom   33 type  6   force =    -0.00093975   -0.00045295   -0.00041992
     atom   34 type  6   force =     0.00067194   -0.00055051   -0.00044271
     atom   35 type  6   force =    -0.00067194   -0.00055051    0.00044271
     atom   36 type  6   force =    -0.00007063    0.00000510   -0.00041149
     atom   37 type  6   force =     0.00007063    0.00000510    0.00041149
     atom   38 type  6   force =     0.00000334    0.00005651   -0.00052750
     atom   39 type  6   force =    -0.00000334    0.00005651    0.00052750
     atom   40 type  3   force =     0.00015241    0.00013850   -0.00010664
     atom   41 type  3   force =    -0.00015241    0.00013850    0.00010664
     atom   42 type  3   force =     0.00001582   -0.00036007   -0.00031342
     atom   43 type  3   force =    -0.00001582   -0.00036007    0.00031342
     atom   44 type  2   force =     0.00000000   -0.00098741   -0.00000000

     Total force =     0.002612     Total SCF correction =     0.000102

     DFT-D3 dispersion Force =     0.004298

     Computing stress (Cartesian axis) and pressure

     negative rho (up, down):  0.000E+00 3.861E-04
          total   stress  (Ry/bohr**3)                   (kbar)     P=       -0.69
  -0.00000314   0.00000000   0.00000032           -0.46        0.00        0.05
   0.00000000  -0.00000414   0.00000000            0.00       -0.61        0.00
   0.00000032   0.00000000  -0.00000690            0.05        0.00       -1.01

     kinetic stress (kbar)  20093.80      0.00     36.72
                                0.00  20123.53      0.00
                               36.72      0.00  19744.08

     local   stress (kbar) -40403.33      0.00    -60.88
                                0.00 -40113.85      0.00
                              -60.88      0.00  19068.98

     nonloc. stress (kbar)   3788.82      0.00     -6.46
                                0.00   3791.00      0.00
                               -6.46      0.00   3780.96

     hartree stress (kbar)  22791.82     -0.00     18.96
                               -0.00  22632.18      0.00
                               18.96      0.00  -6308.39

     exc-cor stress (kbar)  -2815.64      0.00      0.41
                                0.00  -2815.46     -0.00
                                0.41     -0.00  -2812.67

     corecor stress (kbar)  -1854.67     -0.00     -0.19
                               -0.00  -1855.02     -0.00
                               -0.19     -0.00  -1855.93

     ewald   stress (kbar)  -1586.62     -0.00     11.42
                               -0.00  -1748.22     -0.00
                               11.42     -0.00 -31607.09

     hubbard stress (kbar)      0.00      0.00      0.00
                                0.00      0.00      0.00
                                0.00      0.00      0.00

     DFT-D   stress (kbar)    -14.63      0.00      0.06
                                0.00    -14.77     -0.00
                                0.06     -0.00    -10.94

     XDM     stress (kbar)      0.00      0.00      0.00
                                0.00      0.00      0.00
                                0.00      0.00      0.00

     dft-nl  stress (kbar)      0.00      0.00      0.00
                                0.00      0.00      0.00
                                0.00      0.00      0.00

     TS-vdW  stress (kbar)      0.00      0.00      0.00
                                0.00      0.00      0.00
                                0.00      0.00      0.00

     MDB     stress (kbar)      0.00      0.00      0.00
                                0.00      0.00      0.00
                                0.00      0.00      0.00

     3D-RISM stress (kbar)      0.00      0.00      0.00
                                0.00      0.00      0.00
                                0.00      0.00      0.00

     Writing all to output data dir ./temp/phl-fe1-fe3.save/ :
     XML data file, charge density, pseudopotentials, collected wavefunctions

     General routines

     Parallel routines

     PAW routines

   This run was terminated on:   3:20:52  22Jan2025

   JOB DONE.