     Program PWSCF v.7.3.1 starts on 25Mar2025 at 11:34:52

     Reading input from vc_relax.in

     Current dimensions of program PWSCF are:
     Max number of different atomic species (ntypx) = 10
     Max number of k-points (npk) =  40000
     Max angular momentum in pseudopotentials (lmaxx) =  4
     file Al.pbe-n-kjpaw_psl.1.0.0.UPF: wavefunction(s)  3S 3P renormalized
     file Ti.pbe-spn-kjpaw_psl.1.0.0.UPF: wavefunction(s)  3S 3P 3D renormalized
     file H.pbe-kjpaw_psl.1.0.0.UPF: wavefunction(s)  1S renormalized
     file K.pbe-spn-kjpaw_psl.1.0.0.UPF: wavefunction(s)  3S renormalized
     file Mg.pbe-spnl-kjpaw_psl.1.0.0.UPF: wavefunction(s)  2P renormalized
     file O.pbe-n-kjpaw_psl.1.0.0.UPF: wavefunction(s)  2S 2P renormalized
     file Si.pbe-n-kjpaw_psl.1.0.0.UPF: wavefunction(s)  3S 3P renormalized

     R & G space division:  proc/nbgrp/npool/nimage =       6
     Subspace diagonalization in iterative solution of the eigenvalue problem:
     one sub-group per band group will be used

     Using Slab Decomposition

     bravais-lattice index     =          -12
     lattice parameter (alat)  =      20.1159  a.u.
     unit-cell volume          =    6745.4973 (a.u.)^3
     number of atoms/cell      =           87
     number of atomic types    =            7
     number of electrons       =       504.00
     number of Kohn-Sham states=          302
     kinetic-energy cutoff     =      60.0000  Ry
     charge density cutoff     =     480.0000  Ry
     scf convergence threshold =      1.0E-06
     mixing beta               =       0.7000
     number of iterations used =            8  plain     mixing
     energy convergence thresh.=      1.0E-04
     force convergence thresh. =      1.0E-03
     press convergence thresh. =      5.0E-01
     Exchange-correlation= SLA  PW   PBX  PBC
                           (   1   4   3   4   0   0   0)
     nstep                     =           50

     celldm(1)=  20.115921  celldm(2)=   0.865951  celldm(3)=   0.972461
     celldm(4)=   0.000000  celldm(5)=  -0.177748  celldm(6)=   0.000000

     crystal axes: (cart. coord. in units of alat)
               a(1) = (   1.000000   0.000000   0.000000 )
               a(2) = (   0.000000   0.865951   0.000000 )
               a(3) = (  -0.172853   0.000000   0.956976 )

     reciprocal axes: (cart. coord. in units 2 pi/alat)
               b(1) = (  1.000000 -0.000000  0.180625 )
               b(2) = (  0.000000  1.154800 -0.000000 )
               b(3) = (  0.000000  0.000000  1.044958 )

     PseudoPot. # 1 for Al read from file:
     ./../../../pseudos/Al.pbe-n-kjpaw_psl.1.0.0.UPF
     MD5 check sum: 502b6b27b9c6270cab5dd1084b96fa6d
     Pseudo is Projector augmented-wave + core cor, Zval =  3.0
     Generated using &quot;atomic&quot; code by A. Dal Corso  v.6.3
     Shape of augmentation charge: PSQ
     Using radial grid of 1135 points,  6 beta functions with:
                l(1) =   0
                l(2) =   0
                l(3) =   1
                l(4) =   1
                l(5) =   2
                l(6) =   2
     Q(r) pseudized with 0 coefficients

     PseudoPot. # 2 for Ti read from file:
     ./../../../pseudos/Ti.pbe-spn-kjpaw_psl.1.0.0.UPF
     MD5 check sum: 01f69b0d8ba4438b2e03ac6ea4af1c0b
     Pseudo is Projector augmented-wave + core cor, Zval = 12.0
     Generated using &quot;atomic&quot; code by A. Dal Corso  v.6.2.2
     Shape of augmentation charge: PSQ
     Using radial grid of 1177 points,  6 beta functions with:
                l(1) =   0
                l(2) =   0
                l(3) =   1
                l(4) =   1
                l(5) =   2
                l(6) =   2
     Q(r) pseudized with 0 coefficients

     PseudoPot. # 3 for H  read from file:
     ./../../../pseudos/H.pbe-kjpaw_psl.1.0.0.UPF
     MD5 check sum: d81a744832360e4a8af0b0b5b123bc2a
     Pseudo is Projector augmented-wave, Zval =  1.0
     Generated using &quot;atomic&quot; code by A. Dal Corso  v.6.3MaX
     Shape of augmentation charge: PSQ
     Using radial grid of  929 points,  2 beta functions with:
                l(1) =   0
                l(2) =   0
     Q(r) pseudized with 0 coefficients

     PseudoPot. # 4 for K  read from file:
     ./../../../pseudos/K.pbe-spn-kjpaw_psl.1.0.0.UPF
     MD5 check sum: 34cc42130a09071ebe376fd42eb21491
     Pseudo is Projector augmented-wave + core cor, Zval =  9.0
     Generated using &quot;atomic&quot; code by A. Dal Corso  v.6.2.2
     Shape of augmentation charge: PSQ
     Using radial grid of 1165 points,  6 beta functions with:
                l(1) =   0
                l(2) =   0
                l(3) =   1
                l(4) =   1
                l(5) =   2
                l(6) =   2
     Q(r) pseudized with 0 coefficients

     PseudoPot. # 5 for Mg read from file:
     ./../../../pseudos/Mg.pbe-spnl-kjpaw_psl.1.0.0.UPF
     MD5 check sum: fda14e0d92a6a9a5ebed782e5a4b3067
     Pseudo is Projector augmented-wave + core cor, Zval = 10.0
     Generated using &quot;atomic&quot; code by A. Dal Corso  v.6.3
     Shape of augmentation charge: PSQ
     Using radial grid of 1129 points,  4 beta functions with:
                l(1) =   0
                l(2) =   0
                l(3) =   1
                l(4) =   1
     Q(r) pseudized with 0 coefficients

     PseudoPot. # 6 for O  read from file:
     ./../../../pseudos/O.pbe-n-kjpaw_psl.1.0.0.UPF
     MD5 check sum: e99d9cef9b487d1ca56f5b95ecd0fd7a
     Pseudo is Projector augmented-wave + core cor, Zval =  6.0
     Generated using &quot;atomic&quot; code by A. Dal Corso  v.6.3
     Shape of augmentation charge: PSQ
     Using radial grid of 1095 points,  4 beta functions with:
                l(1) =   0
                l(2) =   0
                l(3) =   1
                l(4) =   1
     Q(r) pseudized with 0 coefficients

     PseudoPot. # 7 for Si read from file:
     ./../../../pseudos/Si.pbe-n-kjpaw_psl.1.0.0.UPF
     MD5 check sum: c39c59da582df4a0d9f10159256ea34e
     Pseudo is Projector augmented-wave + core cor, Zval =  4.0
     Generated using &quot;atomic&quot; code by A. Dal Corso  v.6.3
     Shape of augmentation charge: PSQ
     Using radial grid of 1141 points,  6 beta functions with:
                l(1) =   0
                l(2) =   0
                l(3) =   1
                l(4) =   1
                l(5) =   2
                l(6) =   2
     Q(r) pseudized with 0 coefficients

     atomic species   valence    mass     pseudopotential
     Al                3.00    26.98154     Al( 1.00)
     Ti               12.00    47.86700     Ti( 1.00)
     H                 1.00     1.00794     H ( 1.00)
     K                 9.00    39.09830     K ( 1.00)
     Mg               10.00    24.30500     Mg( 1.00)
     O                 6.00    15.99940     O ( 1.00)
     Si                4.00    28.08550     Si( 1.00)

     Starting magnetic structure
     atomic species   magnetization
     Al              0.000
     Ti              0.300
     H               0.000
     K               0.000
     Mg              0.000
     O               0.000
     Si              0.000

      2 Sym. Ops. (no inversion) found

                                    s                        frac. trans.

      isym =  1     identity

 cryst.   s( 1) = (     1          0          0      )
                  (     0          1          0      )
                  (     0          0          1      )

 cart.    s( 1) = (  1.0000000  0.0000000 -0.0000000 )
                  (  0.0000000  1.0000000  0.0000000 )
                  (  0.0000000  0.0000000  1.0000000 )

      isym =  2     180 deg rotation - cart. axis [0,1,0]

[...]

     point group C_2  (2)
     there are  2 classes
     the character table:

       E     C2
A      1.00  1.00
B      1.00 -1.00

     the symmetry operations in each class and the name of the first element:

     E        1
          identity
     C2       2
          180 deg rotation - cart. axis [0,1,0]

   Cartesian axes

     site n.     atom                  positions (alat units)
         1        K      tau(   1) = (   0.0000000   0.4367787   0.0000000  )
         2        K      tau(   2) = (   0.5000000   0.4229485   0.0000000  )
         3        K      tau(   3) = (   0.0816371   0.0036821   0.9412466  )
         4        K      tau(   4) = (   0.7455096   0.0036821   0.0157294  )
         5        Mg     tau(   5) = (  -0.0864267   0.5836571   0.4784880  )
         6        Mg     tau(   6) = (   0.4135733   0.5788704   0.4784880  )
         7        Mg     tau(   7) = (   0.1656575   0.4318475   0.4791527  )
         8        Mg     tau(   8) = (   0.6614891   0.4318475   0.4778232  )
         9        Mg     tau(   9) = (   0.1563301   0.7285529   0.4794229  )
        10        Mg     tau(  10) = (   0.6708165   0.7285529   0.4775530  )
        11        Mg     tau(  11) = (   0.1641465   0.1414917   0.4821925  )
        12        Mg     tau(  12) = (   0.6630001   0.1414917   0.4747834  )
        13        Mg     tau(  13) = (   0.4135733   0.2877815   0.4784880  )
        14        Mg     tau(  14) = (   0.4135733   0.0025966   0.4784880  )
        15        Si     tau(  15) = (   0.0036468   0.1451170   0.2103195  )
        16        Si     tau(  16) = (   0.5023602   0.1445148   0.2156473  )
        17        Si     tau(  17) = (   0.3247864   0.1445148   0.7413286  )
        18        Si     tau(  18) = (   0.8234999   0.1451170   0.7466564  )
        19        Si     tau(  19) = (   0.3333623   0.7235921   0.7347532  )
        20        Si     tau(  20) = (   0.8330255   0.7217528   0.7353725  )
        21        Si     tau(  21) = (  -0.0058789   0.7217528   0.2216034  )
        22        Si     tau(  22) = (   0.4937843   0.7235921   0.2222227  )
        23        Si     tau(  23) = (   0.2416831   0.5796761   0.2196136  )
        24        Si     tau(  24) = (   0.7432661   0.5798833   0.2185158  )
        25        Si     tau(  25) = (   0.0838806   0.5798833   0.7384601  )
        26        Si     tau(  26) = (   0.5854635   0.5796761   0.7373623  )
        27        Al     tau(  27) = (   0.0726537   0.2871348   0.7461579  )
        28        Al     tau(  28) = (   0.5753572   0.2877219   0.7365664  )
        29        Al     tau(  29) = (   0.2517894   0.2877219   0.2204095  )
        30        Al     tau(  30) = (   0.7544929   0.2871348   0.2108180  )
        31        O      tau(  31) = (  -0.0039149   0.1599066   0.3659174  )
        32        O      tau(  32) = (   0.4976352   0.1429888   0.3693081  )
        33        O      tau(  33) = (   0.3295114   0.1429888   0.5876678  )
        34        O      tau(  34) = (   0.8310615   0.1599066   0.5910585  )
        35        O      tau(  35) = (   0.3310299   0.7223295   0.5826109  )
        36        O      tau(  36) = (   0.8282217   0.7116077   0.5862191  )
        37        O      tau(  37) = (  -0.0010751   0.7116077   0.3707568  )
        38        O      tau(  38) = (   0.4961167   0.7223295   0.3743650  )
        39        O      tau(  39) = (   0.2435926   0.5804140   0.3728505  )
        40        O      tau(  40) = (   0.7462277   0.5778149   0.3715159  )
[...]
     atom   49 type  6   force =     0.00000000    0.00000000    0.00000000
     atom   50 type  6   force =     0.00000000    0.00000000    0.00000000
     atom   51 type  6   force =     0.00000000    0.00000000    0.00000000
     atom   52 type  6   force =     0.00000000    0.00000000    0.00000000
     atom   53 type  6   force =     0.00000000    0.00000000    0.00000000
     atom   54 type  6   force =     0.00000000    0.00000000    0.00000000
     atom   55 type  6   force =     0.00000000    0.00000000    0.00000000
     atom   56 type  6   force =     0.00000000    0.00000000    0.00000000
     atom   57 type  6   force =     0.00000000    0.00000000    0.00000000
     atom   58 type  6   force =     0.00000000    0.00000000    0.00000000
     atom   59 type  6   force =     0.00000000    0.00000000    0.00000000
     atom   60 type  6   force =     0.00000000    0.00000000    0.00000000
[...]
     atom   73 type  6   force =     0.00000000    0.00000000    0.00000000
     atom   74 type  6   force =     0.00000000    0.00000000    0.00000000
     atom   75 type  6   force =     0.00000000    0.00000000    0.00000000
     atom   76 type  6   force =     0.00000000    0.00000000    0.00000000
     atom   77 type  6   force =     0.00000000    0.00000000    0.00000000
     atom   78 type  6   force =     0.00000000    0.00000000    0.00000000
     atom   79 type  3   force =     0.00000000    0.00000000    0.00000000
     atom   80 type  3   force =     0.00000000    0.00000000    0.00000000
     atom   81 type  3   force =     0.00000000    0.00000000    0.00000000
     atom   82 type  3   force =     0.00000000    0.00000000    0.00000000
     atom   83 type  3   force =     0.00000000    0.00000000    0.00000000
     atom   84 type  3   force =     0.00000000    0.00000000    0.00000000
     atom   85 type  3   force =     0.00000000    0.00000000    0.00000000
     atom   86 type  3   force =     0.00000000    0.00000000    0.00000000
     atom   87 type  2   force =     0.00000000    0.00000000    0.00000000
     The SCF correction term to forces
     atom    1 type  4   force =    -0.00000000   -0.00000015   -0.00000000
     atom    2 type  4   force =    -0.00000000   -0.00000311   -0.00000000
     atom    3 type  4   force =     0.00000005    0.00000181   -0.00000493
     atom    4 type  4   force =    -0.00000005    0.00000181    0.00000493
     atom    5 type  5   force =    -0.00000000   -0.00000623    0.00000000
     atom    6 type  5   force =    -0.00000000   -0.00000590    0.00000000
     atom    7 type  5   force =    -0.00000977   -0.00001278   -0.00000221
     atom    8 type  5   force =     0.00000977   -0.00001278    0.00000221
     atom    9 type  5   force =    -0.00000836    0.00000272    0.00000247
     atom   10 type  5   force =     0.00000836    0.00000272   -0.00000247
     atom   11 type  5   force =    -0.00001760    0.00000927   -0.00000109
     atom   12 type  5   force =     0.00001760    0.00000927    0.00000109
     atom   13 type  5   force =    -0.00000000    0.00000324   -0.00000000
     atom   14 type  5   force =    -0.00000000    0.00000271    0.00000000
     atom   15 type  7   force =    -0.00000165    0.00000332    0.00000890
     atom   16 type  7   force =     0.00000192    0.00000123   -0.00000186
     atom   17 type  7   force =    -0.00000192    0.00000123    0.00000186
     atom   18 type  7   force =     0.00000165    0.00000332   -0.00000890
     atom   19 type  7   force =    -0.00000103    0.00000081   -0.00000104
     atom   20 type  7   force =     0.00000144   -0.00000173   -0.00000358
     atom   21 type  7   force =    -0.00000144   -0.00000173    0.00000358
     atom   22 type  7   force =     0.00000103    0.00000081    0.00000104
     atom   23 type  7   force =    -0.00000247   -0.00000280    0.00000006
     atom   24 type  7   force =     0.00000232   -0.00000153    0.00000296
     atom   25 type  7   force =    -0.00000232   -0.00000153   -0.00000296
     atom   26 type  7   force =     0.00000247   -0.00000280   -0.00000006
     atom   27 type  1   force =    -0.00000143   -0.00000011   -0.00000404
     atom   28 type  1   force =     0.00000104    0.00000063   -0.00000338
     atom   29 type  1   force =    -0.00000104    0.00000063    0.00000338
     atom   30 type  1   force =     0.00000143   -0.00000011    0.00000404
     atom   31 type  6   force =    -0.00000549    0.00000240    0.00002581
     atom   32 type  6   force =     0.00000438   -0.00000097   -0.00000132
     atom   33 type  6   force =    -0.00000438   -0.00000097    0.00000132
     atom   34 type  6   force =     0.00000549    0.00000240   -0.00002581
     atom   35 type  6   force =    -0.00000405    0.00000150    0.00000726
     atom   36 type  6   force =     0.00000383    0.00000001    0.00000236
     atom   37 type  6   force =    -0.00000383    0.00000001   -0.00000236
     atom   38 type  6   force =     0.00000405    0.00000150   -0.00000726
     atom   39 type  6   force =    -0.00000562   -0.00000247   -0.00000522
     atom   40 type  6   force =     0.00000680   -0.00000087   -0.00000183
     atom   41 type  6   force =    -0.00000680   -0.00000087    0.00000183
     atom   42 type  6   force =     0.00000562   -0.00000247    0.00000522
     atom   43 type  6   force =    -0.00000632   -0.00000254   -0.00001626
     atom   44 type  6   force =     0.00000812    0.00000086   -0.00001064
     atom   45 type  6   force =    -0.00000812    0.00000086    0.00001064
     atom   46 type  6   force =     0.00000632   -0.00000254    0.00001626
     atom   47 type  6   force =     0.00000792    0.00000428   -0.00000389
     atom   48 type  6   force =    -0.00000282   -0.00000523    0.00000014
     atom   49 type  6   force =     0.00000282   -0.00000523   -0.00000014
     atom   50 type  6   force =    -0.00000792    0.00000428    0.00000389
     atom   51 type  6   force =    -0.00000410   -0.00001382    0.00000607
     atom   52 type  6   force =     0.00000549   -0.00000005    0.00000560
     atom   53 type  6   force =    -0.00000549   -0.00000005   -0.00000560
     atom   54 type  6   force =     0.00000410   -0.00001382   -0.00000607
     atom   55 type  6   force =    -0.00000340    0.00000045   -0.00000937
     atom   56 type  6   force =     0.00000554   -0.00000541   -0.00000759
     atom   57 type  6   force =    -0.00000554   -0.00000541    0.00000759
     atom   58 type  6   force =     0.00000340    0.00000045    0.00000937
     atom   59 type  6   force =    -0.00000216   -0.00000062    0.00000502
     atom   60 type  6   force =     0.00000159    0.00000030    0.00001103
[...]
     atom   73 type  6   force =    -0.00000251   -0.00000092   -0.00000261
     atom   74 type  6   force =     0.00000267   -0.00000192   -0.00001213
     atom   75 type  6   force =    -0.00000429    0.00000101    0.00000479
     atom   76 type  6   force =     0.00000438    0.00000338    0.00000431
     atom   77 type  6   force =    -0.00000438    0.00000338   -0.00000431
     atom   78 type  6   force =     0.00000429    0.00000101   -0.00000479
     atom   79 type  3   force =    -0.00000033    0.00000022    0.00000358
     atom   80 type  3   force =     0.00000022   -0.00000009   -0.00000070
     atom   81 type  3   force =    -0.00000022   -0.00000009    0.00000070
     atom   82 type  3   force =     0.00000033    0.00000022   -0.00000358
     atom   83 type  3   force =    -0.00000036    0.00000021   -0.00000074
     atom   84 type  3   force =    -0.00000027    0.00000091    0.00000087
     atom   85 type  3   force =     0.00000027    0.00000091   -0.00000087
     atom   86 type  3   force =     0.00000036    0.00000021    0.00000074
     atom   87 type  2   force =    -0.00000000   -0.00001702   -0.00000000

     DFT-D3 dispersion contribution to forces:
     atom    1 type  4   force =     0.00000001    0.00046728   -0.00000001
     atom    2 type  4   force =     0.00000001    0.00122733   -0.00000001
     atom    3 type  4   force =     0.00027668   -0.00046378   -0.00018556
     atom    4 type  4   force =    -0.00027669   -0.00046378    0.00018555
     atom    5 type  5   force =    -0.00000000    0.00048372   -0.00000001
     atom    6 type  5   force =    -0.00000000   -0.00120482   -0.00000001
     atom    7 type  5   force =     0.00050275   -0.00017945    0.00002671
     atom    8 type  5   force =    -0.00050275   -0.00017945   -0.00002671
     atom    9 type  5   force =    -0.00079595    0.00168939   -0.00007088
     atom   10 type  5   force =     0.00079594    0.00168939    0.00007088
     atom   11 type  5   force =    -0.00037869   -0.00116951    0.00029798
     atom   12 type  5   force =     0.00037869   -0.00116952   -0.00029798
     atom   13 type  5   force =    -0.00000000    0.00078769    0.00000000
     atom   14 type  5   force =    -0.00000000    0.00023881    0.00000000
     atom   15 type  7   force =    -0.00025184   -0.00046340    0.00067989
     atom   16 type  7   force =     0.00008299    0.00001696   -0.00034919
     atom   17 type  7   force =    -0.00008299    0.00001696    0.00034919
     atom   18 type  7   force =     0.00025185   -0.00046340   -0.00067989
     atom   19 type  7   force =     0.00010908    0.00000697    0.00026487
     atom   20 type  7   force =     0.00023989    0.00045639   -0.00075526
     atom   21 type  7   force =    -0.00023989    0.00045639    0.00075527
     atom   22 type  7   force =    -0.00010908    0.00000697   -0.00026486
     atom   23 type  7   force =     0.00002724   -0.00006853   -0.00030165
     atom   24 type  7   force =    -0.00018524   -0.00013334   -0.00043979
     atom   25 type  7   force =     0.00018524   -0.00013334    0.00043979
     atom   26 type  7   force =    -0.00002724   -0.00006853    0.00030165
     atom   27 type  1   force =     0.00014608    0.00029961   -0.00076864
     atom   28 type  1   force =     0.00004924    0.00000439   -0.00065756
     atom   29 type  1   force =    -0.00004925    0.00000439    0.00065756
     atom   30 type  1   force =    -0.00014608    0.00029961    0.00076864
     atom   31 type  6   force =     0.00011478   -0.00026771    0.00060227
     atom   32 type  6   force =    -0.00008676    0.00009667    0.00044443
     atom   33 type  6   force =     0.00008676    0.00009667   -0.00044442
     atom   34 type  6   force =    -0.00011476   -0.00026772   -0.00060227
     atom   35 type  6   force =     0.00012906   -0.00005149   -0.00038834
     atom   36 type  6   force =    -0.00004506    0.00004879   -0.00063998
     atom   37 type  6   force =     0.00004506    0.00004877    0.00063998
     atom   38 type  6   force =    -0.00012907   -0.00005149    0.00038834
     atom   39 type  6   force =     0.00005269   -0.00011159    0.00040475
     atom   40 type  6   force =    -0.00002627   -0.00013483    0.00037384
     atom   41 type  6   force =     0.00002627   -0.00013483   -0.00037387
     atom   42 type  6   force =    -0.00005269   -0.00011159   -0.00040479
     atom   43 type  6   force =     0.00021049    0.00000531    0.00019959
     atom   44 type  6   force =    -0.00014234    0.00005916    0.00012951
     atom   45 type  6   force =     0.00014232    0.00005916   -0.00012952
     atom   46 type  6   force =    -0.00021050    0.00000531   -0.00019959
     atom   47 type  6   force =    -0.00019529    0.00108672    0.00031972
     atom   48 type  6   force =    -0.00005839    0.00087599    0.00034001
     atom   49 type  6   force =     0.00005839    0.00087599   -0.00034001
     atom   50 type  6   force =     0.00019529    0.00108671   -0.00031972
     atom   51 type  6   force =     0.00095893    0.00006973    0.00033870
     atom   52 type  6   force =     0.00041370    0.00008490    0.00026451
     atom   53 type  6   force =    -0.00041370    0.00008490   -0.00026451
     atom   54 type  6   force =    -0.00095894    0.00006973   -0.00033871
     atom   55 type  6   force =     0.00048311   -0.00079990   -0.00014612
     atom   56 type  6   force =     0.00017758   -0.00030029   -0.00004967
     atom   57 type  6   force =    -0.00017757   -0.00030030    0.00004967
     atom   58 type  6   force =    -0.00048310   -0.00079991    0.00014613
     atom   59 type  6   force =    -0.00024756    0.00036088   -0.00014628
     atom   60 type  6   force =    -0.00018880    0.00018496    0.00033793
[...]
     atom   73 type  6   force =    -0.00002971   -0.00001033    0.00048970
     atom   74 type  6   force =    -0.00018191    0.00024116    0.00072540
     atom   75 type  6   force =     0.00000881    0.00005015   -0.00046097
     atom   76 type  6   force =     0.00027029   -0.00010277   -0.00023511
     atom   77 type  6   force =    -0.00027030   -0.00010277    0.00023511
     atom   78 type  6   force =    -0.00000881    0.00005015    0.00046097
     atom   79 type  3   force =     0.00002726    0.00041322   -0.00022350
     atom   80 type  3   force =     0.00008273    0.00003913   -0.00027871
     atom   81 type  3   force =    -0.00008273    0.00003913    0.00027871
     atom   82 type  3   force =    -0.00002726    0.00041322    0.00022350
     atom   83 type  3   force =     0.00015757   -0.00038222   -0.00030798
     atom   84 type  3   force =     0.00091329    0.00005661   -0.00003895
     atom   85 type  3   force =    -0.00091330    0.00005661    0.00003896
     atom   86 type  3   force =    -0.00015757   -0.00038222    0.00030798
     atom   87 type  2   force =     0.00000001   -0.00116954   -0.00000000

     Total force =     0.003008     Total SCF correction =     0.000088

     DFT-D3 dispersion Force =     0.007075

     Computing stress (Cartesian axis) and pressure

          total   stress  (Ry/bohr**3)                   (kbar)     P=        0.12
  -0.00000040   0.00000000  -0.00000014           -0.06        0.00       -0.02
   0.00000000   0.00000000   0.00000000            0.00        0.00        0.00
  -0.00000014   0.00000000   0.00000285           -0.02        0.00        0.42

     kinetic stress (kbar)  18617.71      0.00     -4.78
                                0.00  18702.22      0.00
                               -4.78      0.00  18477.13

     local   stress (kbar) -32419.87      0.00    -66.86
                                0.00 -31552.93     -0.00
                              -66.86     -0.00  10075.64

     nonloc. stress (kbar)   4455.51      0.00     -1.35
                                0.00   4462.42      0.00
                               -1.35      0.00   4448.04

     hartree stress (kbar)  17888.34     -0.00     19.96
                               -0.00  17598.94      0.00
                               19.96      0.00  -2761.68

     exc-cor stress (kbar)  -2552.09     -0.00      0.03
                               -0.00  -2553.58      0.00
                                0.03      0.00  -2551.41

     corecor stress (kbar)  -1907.23      0.00      0.03
                                0.00  -1907.46      0.00
                                0.03      0.00  -1908.28

     ewald   stress (kbar)  -4067.92     -0.01     52.81
                               -0.01  -4734.71      0.00
                               52.81      0.00 -25767.49

     hubbard stress (kbar)      0.00      0.00      0.00
                                0.00      0.00      0.00
                                0.00      0.00      0.00

     DFT-D   stress (kbar)    -14.52     -0.00      0.14
                               -0.00    -14.91      0.00
                                0.14      0.00    -11.52

     XDM     stress (kbar)      0.00      0.00      0.00
                                0.00      0.00      0.00
                                0.00      0.00      0.00

     dft-nl  stress (kbar)      0.00      0.00      0.00
                                0.00      0.00      0.00
                                0.00      0.00      0.00

     TS-vdW  stress (kbar)      0.00      0.00      0.00
                                0.00      0.00      0.00
                                0.00      0.00      0.00

     MDB     stress (kbar)      0.00      0.00      0.00
                                0.00      0.00      0.00
                                0.00      0.00      0.00

     3D-RISM stress (kbar)      0.00      0.00      0.00
                                0.00      0.00      0.00
                                0.00      0.00      0.00

     Writing all to output data dir ./temp/phl-ti1-ti2-v1x2.save/ :
     XML data file, charge density, pseudopotentials, collected wavefunctions

     General routines

     Parallel routines

     PAW routines

   This run was terminated on:  13: 2:41  27Mar2025

   JOB DONE.