     Program PWSCF v.7.3.1 starts on 16Dec2024 at 21:58:34

     Reading input from vc_relax.in

     Current dimensions of program PWSCF are:
     Max number of different atomic species (ntypx) = 10
     Max number of k-points (npk) =  40000
     Max angular momentum in pseudopotentials (lmaxx) =  4
     file Al.pbe-n-kjpaw_psl.1.0.0.UPF: wavefunction(s)  3S 3P renormalized
     file H.pbe-kjpaw_psl.1.0.0.UPF: wavefunction(s)  1S renormalized
     file K.pbe-spn-kjpaw_psl.1.0.0.UPF: wavefunction(s)  3S renormalized
     file Mg.pbe-spnl-kjpaw_psl.1.0.0.UPF: wavefunction(s)  2P renormalized
     file O.pbe-n-kjpaw_psl.1.0.0.UPF: wavefunction(s)  2S 2P renormalized
     file Si.pbe-n-kjpaw_psl.1.0.0.UPF: wavefunction(s)  3S 3P renormalized

     R & G space division:  proc/nbgrp/npool/nimage =       8
     Subspace diagonalization in iterative solution of the eigenvalue problem:
     a serial algorithm will be used

     Using Slab Decomposition

     bravais-lattice index     =          -12
     lattice parameter (alat)  =      10.0136  a.u.
     unit-cell volume          =    3303.4414 (a.u.)^3
     number of atoms/cell      =           44
     number of atomic types    =            6
     number of electrons       =       256.00
     number of Kohn-Sham states=          128
     kinetic-energy cutoff     =      60.0000  Ry
     charge density cutoff     =     480.0000  Ry
     scf convergence threshold =      1.0E-06
     mixing beta               =       0.7000
     number of iterations used =            8  plain     mixing
     energy convergence thresh.=      1.0E-04
     force convergence thresh. =      1.0E-03
     press convergence thresh. =      5.0E-01
     Exchange-correlation= SLA  PW   PBX  PBC
                           (   1   4   3   4   0   0   0)
     nstep                     =           50

     celldm(1)=  10.013640  celldm(2)=   1.735306  celldm(3)=   1.926511
     celldm(4)=   0.000000  celldm(5)=  -0.177565  celldm(6)=   0.000000

     crystal axes: (cart. coord. in units of alat)
               a(1) = (   1.000000   0.000000   0.000000 )
               a(2) = (   0.000000   1.735306   0.000000 )
               a(3) = (  -0.342081   0.000000   1.895896 )

     reciprocal axes: (cart. coord. in units 2 pi/alat)
               b(1) = (  1.000000 -0.000000  0.180432 )
               b(2) = (  0.000000  0.576267 -0.000000 )
               b(3) = (  0.000000  0.000000  0.527455 )

     PseudoPot. # 1 for Al read from file:
     ./../../pseudos/Al.pbe-n-kjpaw_psl.1.0.0.UPF
     MD5 check sum: 502b6b27b9c6270cab5dd1084b96fa6d
     Pseudo is Projector augmented-wave + core cor, Zval =  3.0
     Generated using &quot;atomic&quot; code by A. Dal Corso  v.6.3
     Shape of augmentation charge: PSQ
     Using radial grid of 1135 points,  6 beta functions with:
                l(1) =   0
                l(2) =   0
                l(3) =   1
                l(4) =   1
                l(5) =   2
                l(6) =   2
     Q(r) pseudized with 0 coefficients

     PseudoPot. # 2 for H  read from file:
     ./../../pseudos/H.pbe-kjpaw_psl.1.0.0.UPF
     MD5 check sum: d81a744832360e4a8af0b0b5b123bc2a
     Pseudo is Projector augmented-wave, Zval =  1.0
     Generated using &quot;atomic&quot; code by A. Dal Corso  v.6.3MaX
     Shape of augmentation charge: PSQ
     Using radial grid of  929 points,  2 beta functions with:
                l(1) =   0
                l(2) =   0
     Q(r) pseudized with 0 coefficients

     PseudoPot. # 3 for K  read from file:
     ./../../pseudos/K.pbe-spn-kjpaw_psl.1.0.0.UPF
     MD5 check sum: 34cc42130a09071ebe376fd42eb21491
     Pseudo is Projector augmented-wave + core cor, Zval =  9.0
     Generated using &quot;atomic&quot; code by A. Dal Corso  v.6.2.2
     Shape of augmentation charge: PSQ
     Using radial grid of 1165 points,  6 beta functions with:
                l(1) =   0
                l(2) =   0
                l(3) =   1
                l(4) =   1
                l(5) =   2
                l(6) =   2
     Q(r) pseudized with 0 coefficients

     PseudoPot. # 4 for Mg read from file:
     ./../../pseudos/Mg.pbe-spnl-kjpaw_psl.1.0.0.UPF
     MD5 check sum: fda14e0d92a6a9a5ebed782e5a4b3067
     Pseudo is Projector augmented-wave + core cor, Zval = 10.0
     Generated using &quot;atomic&quot; code by A. Dal Corso  v.6.3
     Shape of augmentation charge: PSQ
     Using radial grid of 1129 points,  4 beta functions with:
                l(1) =   0
                l(2) =   0
                l(3) =   1
                l(4) =   1
     Q(r) pseudized with 0 coefficients

     PseudoPot. # 5 for O  read from file:
     ./../../pseudos/O.pbe-n-kjpaw_psl.1.0.0.UPF
     MD5 check sum: e99d9cef9b487d1ca56f5b95ecd0fd7a
     Pseudo is Projector augmented-wave + core cor, Zval =  6.0
     Generated using &quot;atomic&quot; code by A. Dal Corso  v.6.3
     Shape of augmentation charge: PSQ
     Using radial grid of 1095 points,  4 beta functions with:
                l(1) =   0
                l(2) =   0
                l(3) =   1
                l(4) =   1
     Q(r) pseudized with 0 coefficients

     PseudoPot. # 6 for Si read from file:
     ./../../pseudos/Si.pbe-n-kjpaw_psl.1.0.0.UPF
     MD5 check sum: c39c59da582df4a0d9f10159256ea34e
     Pseudo is Projector augmented-wave + core cor, Zval =  4.0
     Generated using &quot;atomic&quot; code by A. Dal Corso  v.6.3
     Shape of augmentation charge: PSQ
     Using radial grid of 1141 points,  6 beta functions with:
                l(1) =   0
                l(2) =   0
                l(3) =   1
                l(4) =   1
                l(5) =   2
                l(6) =   2
     Q(r) pseudized with 0 coefficients

     atomic species   valence    mass     pseudopotential
     Al                3.00    26.98154     Al( 1.00)
     H                 1.00     1.00794     H ( 1.00)
     K                 9.00    39.09830     K ( 1.00)
     Mg               10.00    24.30500     Mg( 1.00)
     O                 6.00    15.99940     O ( 1.00)
     Si                4.00    28.08550     Si( 1.00)

      2 Sym. Ops. (no inversion) found

                                    s                        frac. trans.

      isym =  1     identity

 cryst.   s( 1) = (     1          0          0      )
                  (     0          1          0      )
                  (     0          0          1      )

 cart.    s( 1) = (  1.0000000  0.0000000 -0.0000000 )
                  (  0.0000000  1.0000000  0.0000000 )
                  (  0.0000000  0.0000000  1.0000000 )

      isym =  2     180 deg rotation - cart. axis [0,1,0]

[...]

     point group C_2  (2)
     there are  2 classes
     the character table:

       E     C2
A      1.00  1.00
B      1.00 -1.00

     the symmetry operations in each class and the name of the first element:

     E        1
          identity
     C2       2
          180 deg rotation - cart. axis [0,1,0]

   Cartesian axes

     site n.     atom                  positions (alat units)
         1        K      tau(   1) = (   0.0000000   0.8612688   0.0000000  )
         2        K      tau(   2) = (   0.5000000   0.0030869   0.0000000  )
         3        Mg     tau(   3) = (  -0.1710407   0.0075627   0.9479482  )
         4        Mg     tau(   4) = (  -0.1710407   0.5785145   0.9479482  )
         5        Mg     tau(   5) = (  -0.1710407   1.1538183   0.9479482  )
         6        Mg     tau(   6) = (   0.3289593   0.8558043   0.9479482  )
         7        Mg     tau(   7) = (   0.3289593   1.4487383   0.9479482  )
         8        Mg     tau(   8) = (   0.3289593   0.2987879   0.9479482  )
         9        Si     tau(   9) = (   0.0069478   0.2861638   0.4225247  )
        10        Si     tau(  10) = (   0.6509708   0.2861638   1.4733718  )
        11        Si     tau(  11) = (   0.6704556   1.4477401   1.4618682  )
        12        Si     tau(  12) = (  -0.0125369   1.4477401   0.4340282  )
        13        Si     tau(  13) = (   0.4868221   1.1566299   0.4302377  )
        14        Si     tau(  14) = (   0.1710966   1.1566299   1.4656587  )
        15        Al     tau(  15) = (   0.1500500   0.5742609   1.4705558  )
        16        Al     tau(  16) = (   0.5078687   0.5742609   0.4253406  )
        17        O      tau(  17) = (  -0.0044965   0.2836502   0.7302751  )
        18        O      tau(  18) = (   0.6624151   0.2836502   1.1656214  )
        19        O      tau(  19) = (   0.6658126   1.4456057   1.1566469  )
        20        O      tau(  20) = (  -0.0078939   1.4456057   0.7392494  )
        21        O      tau(  21) = (   0.4924389   1.1612568   0.7367745  )
        22        O      tau(  22) = (   0.1654798   1.1612568   1.1591219  )
        23        O      tau(  23) = (   0.1546153   0.5779180   1.1445411  )
        24        O      tau(  24) = (   0.5033034   0.5779180   0.7513553  )
        25        O      tau(  25) = (   0.2872896   0.3496994   0.3147622  )
        26        O      tau(  26) = (   0.3706291   0.3496994   1.5811342  )
        27        O      tau(  27) = (   0.9358981   1.7303459   0.3179456  )
        28        O      tau(  28) = (  -0.2779795   1.7303459   1.5779508  )
        29        O      tau(  29) = (   0.3971790   1.3473831   1.5753677  )
        30        O      tau(  30) = (   0.2607397   1.3473831   0.3205287  )
        31        O      tau(  31) = (   0.7600511   1.2674262   0.3184475  )
        32        O      tau(  32) = (  -0.1021325   1.2674262   1.5774490  )
        33        O      tau(  33) = (   0.4388764   0.8811551   0.3079530  )
        34        O      tau(  34) = (   0.2190423   0.8811551   1.5879435  )
        35        O      tau(  35) = (  -0.1456040   0.4817486   1.5936536  )
        36        O      tau(  36) = (   0.8035227   0.4817486   0.3022428  )
        37        O      tau(  37) = (  -0.0043658   0.8750139   0.7457459  )
        38        O      tau(  38) = (   0.6622845   0.8750139   1.1501505  )
        39        O      tau(  39) = (   0.4966471   1.7339638   0.7524516  )
        40        O      tau(  40) = (   0.1612716   1.7339638   1.1434447  )
        41        H      tau(  41) = (  -0.0031848   0.8569122   0.5646137  )
        42        H      tau(  42) = (   0.6611035   0.8569122   1.3312827  )
        43        H      tau(  43) = (   0.4918867   0.0276992   0.5725809  )
        44        H      tau(  44) = (   0.1660320   0.0276992   1.3233155  )

     Parameters for Dispersion (Grimme-D2) Correction:
       atom      VdW radius       C_6

        Al         3.097        374.319
        H          1.892          4.857
        K          2.806        374.666
        Mg         2.578        198.087
        O          2.536         24.284
        Si         3.243        320.200

   Crystallographic axes

     site n.     atom                  positions (cryst. coord.)
         1        K      tau(   1) = (  0.0000000  0.4963210  0.0000000  )
         2        K      tau(   2) = (  0.5000000  0.0017789  0.0000000  )
         3        Mg     tau(   3) = (  0.0000000  0.0043581  0.5000000  )
         4        Mg     tau(   4) = (  0.0000000  0.3333789  0.5000000  )
[...]
     atom   44 type  2   force =    -0.04157602   -0.43274541   -5.24994468
     The core correction contribution to forces
     atom    1 type  3   force =    -0.00000000   -0.00142621   -0.00000000
     atom    2 type  3   force =    -0.00000000    0.00152227    0.00000000
     atom    3 type  4   force =    -0.00000000    0.00022576   -0.00000000
     atom    4 type  4   force =    -0.00000000    0.00026068   -0.00000000
     atom    5 type  4   force =     0.00000000   -0.00037660   -0.00000000
     atom    6 type  4   force =    -0.00000000   -0.00082993    0.00000000
     atom    7 type  4   force =     0.00000000    0.00027954   -0.00000000
     atom    8 type  4   force =    -0.00000000    0.00041268   -0.00000000
     atom    9 type  6   force =     0.00254011    0.01066699    0.00630771
     atom   10 type  6   force =    -0.00254013    0.01066701   -0.00630759
     atom   11 type  6   force =     0.00047734    0.00347881   -0.01357207
     atom   12 type  6   force =    -0.00047734    0.00347881    0.01357207
     atom   13 type  6   force =    -0.00179596   -0.01189781    0.01076564
     atom   14 type  6   force =     0.00179594   -0.01189780   -0.01076573
     atom   15 type  1   force =    -0.00072427   -0.00234501   -0.01079975
     atom   16 type  1   force =     0.00072427   -0.00234501    0.01079971
     atom   17 type  5   force =    -0.00017170    0.00022390    0.00646828
     atom   18 type  5   force =     0.00017169    0.00022390   -0.00646828
     atom   19 type  5   force =    -0.00007990    0.00003378   -0.00699942
     atom   20 type  5   force =     0.00007991    0.00003378    0.00699941
     atom   21 type  5   force =     0.00005542   -0.00017276    0.00685755
     atom   22 type  5   force =    -0.00005544   -0.00017276   -0.00685755
     atom   23 type  5   force =     0.00009470    0.00004419   -0.00322134
     atom   24 type  5   force =    -0.00009471    0.00004419    0.00322134
     atom   25 type  5   force =     0.00472478   -0.00195528   -0.00576243
     atom   26 type  5   force =    -0.00472478   -0.00195527    0.00576240
     atom   27 type  5   force =    -0.00379468    0.00083793   -0.00709997
     atom   28 type  5   force =     0.00379468    0.00083793    0.00709996
     atom   29 type  5   force =    -0.00182954    0.00267300    0.00727472
     atom   30 type  5   force =     0.00182954    0.00267300   -0.00727472
     atom   31 type  5   force =     0.00109053   -0.00252823   -0.00747964
     atom   32 type  5   force =    -0.00109053   -0.00252823    0.00747967
     atom   33 type  5   force =    -0.00270539   -0.00353259   -0.00650207
     atom   34 type  5   force =     0.00270538   -0.00353258    0.00650211
     atom   35 type  5   force =     0.00098584    0.00434191    0.00646461
     atom   36 type  5   force =    -0.00098584    0.00434191   -0.00646460
     atom   37 type  5   force =     0.00003019    0.00080335    0.01121034
     atom   38 type  5   force =    -0.00003018    0.00080335   -0.01121034
     atom   39 type  5   force =     0.00011282   -0.00168692    0.01090094
     atom   40 type  5   force =    -0.00011279   -0.00168691   -0.01090092
     atom   41 type  2   force =     0.00000000    0.00000000    0.00000000
     atom   42 type  2   force =     0.00000000    0.00000000    0.00000000
     atom   43 type  2   force =     0.00000000    0.00000000    0.00000000
     atom   44 type  2   force =     0.00000000    0.00000000    0.00000000
     The Hubbard contrib.    to forces
     atom    1 type  3   force =     0.00000000    0.00000000    0.00000000
     atom    2 type  3   force =     0.00000000    0.00000000    0.00000000
     atom    3 type  4   force =     0.00000000    0.00000000    0.00000000
     atom    4 type  4   force =     0.00000000    0.00000000    0.00000000
     atom    5 type  4   force =     0.00000000    0.00000000    0.00000000
     atom    6 type  4   force =     0.00000000    0.00000000    0.00000000
     atom    7 type  4   force =     0.00000000    0.00000000    0.00000000
     atom    8 type  4   force =     0.00000000    0.00000000    0.00000000
     atom    9 type  6   force =     0.00000000    0.00000000    0.00000000
     atom   10 type  6   force =     0.00000000    0.00000000    0.00000000
     atom   11 type  6   force =     0.00000000    0.00000000    0.00000000
     atom   12 type  6   force =     0.00000000    0.00000000    0.00000000
     atom   13 type  6   force =     0.00000000    0.00000000    0.00000000
     atom   14 type  6   force =     0.00000000    0.00000000    0.00000000
     atom   15 type  1   force =     0.00000000    0.00000000    0.00000000
     atom   16 type  1   force =     0.00000000    0.00000000    0.00000000
     atom   17 type  5   force =     0.00000000    0.00000000    0.00000000
     atom   18 type  5   force =     0.00000000    0.00000000    0.00000000
     atom   19 type  5   force =     0.00000000    0.00000000    0.00000000
     atom   20 type  5   force =     0.00000000    0.00000000    0.00000000
     atom   21 type  5   force =     0.00000000    0.00000000    0.00000000
     atom   22 type  5   force =     0.00000000    0.00000000    0.00000000
     atom   23 type  5   force =     0.00000000    0.00000000    0.00000000
     atom   24 type  5   force =     0.00000000    0.00000000    0.00000000
     atom   25 type  5   force =     0.00000000    0.00000000    0.00000000
     atom   26 type  5   force =     0.00000000    0.00000000    0.00000000
     atom   27 type  5   force =     0.00000000    0.00000000    0.00000000
     atom   28 type  5   force =     0.00000000    0.00000000    0.00000000
     atom   29 type  5   force =     0.00000000    0.00000000    0.00000000
     atom   30 type  5   force =     0.00000000    0.00000000    0.00000000
     atom   31 type  5   force =     0.00000000    0.00000000    0.00000000
     atom   32 type  5   force =     0.00000000    0.00000000    0.00000000
     atom   33 type  5   force =     0.00000000    0.00000000    0.00000000
     atom   34 type  5   force =     0.00000000    0.00000000    0.00000000
     atom   35 type  5   force =     0.00000000    0.00000000    0.00000000
     atom   36 type  5   force =     0.00000000    0.00000000    0.00000000
     atom   37 type  5   force =     0.00000000    0.00000000    0.00000000
     atom   38 type  5   force =     0.00000000    0.00000000    0.00000000
     atom   39 type  5   force =     0.00000000    0.00000000    0.00000000
     atom   40 type  5   force =     0.00000000    0.00000000    0.00000000
     atom   41 type  2   force =     0.00000000    0.00000000    0.00000000
     atom   42 type  2   force =     0.00000000    0.00000000    0.00000000
     atom   43 type  2   force =     0.00000000    0.00000000    0.00000000
     atom   44 type  2   force =     0.00000000    0.00000000    0.00000000
     The SCF correction term to forces
     atom    1 type  3   force =    -0.00000000    0.00000970   -0.00000000
     atom    2 type  3   force =     0.00000000   -0.00000720   -0.00000000
     atom    3 type  4   force =    -0.00000000   -0.00004838    0.00000000
     atom    4 type  4   force =    -0.00000000   -0.00000729    0.00000000
     atom    5 type  4   force =    -0.00000000    0.00005219   -0.00000000
     atom    6 type  4   force =     0.00000000    0.00006524    0.00000000
     atom    7 type  4   force =     0.00000000   -0.00001267    0.00000000
     atom    8 type  4   force =     0.00000000   -0.00005022   -0.00000000
     atom    9 type  6   force =    -0.00000060   -0.00001776   -0.00000914
     atom   10 type  6   force =     0.00000060   -0.00001776    0.00000914
     atom   11 type  6   force =     0.00000093    0.00000741   -0.00000028
     atom   12 type  6   force =    -0.00000093    0.00000741    0.00000028
     atom   13 type  6   force =     0.00000204    0.00001939    0.00000591
     atom   14 type  6   force =    -0.00000204    0.00001939   -0.00000591
     atom   15 type  1   force =    -0.00000054   -0.00000693    0.00000733
     atom   16 type  1   force =     0.00000054   -0.00000693   -0.00000733
     atom   17 type  5   force =    -0.00000083   -0.00003122   -0.00000344
     atom   18 type  5   force =     0.00000083   -0.00003122    0.00000344
     atom   19 type  5   force =    -0.00000026    0.00000438   -0.00001982
     atom   20 type  5   force =     0.00000026    0.00000438    0.00001982
     atom   21 type  5   force =    -0.00000051    0.00002845    0.00002986
     atom   22 type  5   force =     0.00000051    0.00002845   -0.00002986
     atom   23 type  5   force =    -0.00000083   -0.00000277    0.00000595
     atom   24 type  5   force =     0.00000083   -0.00000277   -0.00000595
     atom   25 type  5   force =    -0.00000140   -0.00002370   -0.00000842
     atom   26 type  5   force =     0.00000140   -0.00002370    0.00000842
     atom   27 type  5   force =    -0.00000090   -0.00000948   -0.00001056
     atom   28 type  5   force =     0.00000090   -0.00000948    0.00001056
     atom   29 type  5   force =     0.00001131    0.00002591    0.00001080
     atom   30 type  5   force =    -0.00001131    0.00002591   -0.00001080
     atom   31 type  5   force =     0.00001459    0.00002175   -0.00001140
     atom   32 type  5   force =    -0.00001459    0.00002175    0.00001140
     atom   33 type  5   force =    -0.00000198    0.00000489   -0.00000356
     atom   34 type  5   force =     0.00000198    0.00000489    0.00000356
     atom   35 type  5   force =    -0.00000213   -0.00001575    0.00000769
     atom   36 type  5   force =     0.00000213   -0.00001575   -0.00000769
     atom   37 type  5   force =     0.00000001    0.00002649   -0.00000142
     atom   38 type  5   force =    -0.00000001    0.00002649    0.00000142
     atom   39 type  5   force =     0.00000114   -0.00002546    0.00000395
     atom   40 type  5   force =    -0.00000114   -0.00002546   -0.00000395
     atom   41 type  2   force =    -0.00000016    0.00000229   -0.00000361
     atom   42 type  2   force =     0.00000016    0.00000229    0.00000361
     atom   43 type  2   force =     0.00000009   -0.00000279   -0.00000076
     atom   44 type  2   force =    -0.00000009   -0.00000279    0.00000076

     Dispersion contribution to forces:
     atom    1 type  3   force =     0.00000000    0.00245483    0.00000000
     atom    2 type  3   force =    -0.00000000   -0.00184362   -0.00000000
     atom    3 type  4   force =    -0.00000000    0.00055253    0.00000000
     atom    4 type  4   force =    -0.00000000    0.00061363    0.00000000
     atom    5 type  4   force =    -0.00000000   -0.00139093   -0.00000000
     atom    6 type  4   force =     0.00000000   -0.00011028   -0.00000000
     atom    7 type  4   force =     0.00000000    0.00132209   -0.00000000
     atom    8 type  4   force =     0.00000000   -0.00083927    0.00000000
     atom    9 type  6   force =    -0.00019094   -0.00046466    0.00130441
     atom   10 type  6   force =     0.00019094   -0.00046466   -0.00130442
     atom   11 type  6   force =    -0.00005425    0.00025663   -0.00073563
     atom   12 type  6   force =     0.00005425    0.00025663    0.00073563
     atom   13 type  6   force =    -0.00005898    0.00049084    0.00117130
     atom   14 type  6   force =     0.00005898    0.00049084   -0.00117130
     atom   15 type  1   force =    -0.00003478   -0.00027955   -0.00330628
     atom   16 type  1   force =     0.00003478   -0.00027955    0.00330628
     atom   17 type  5   force =    -0.00017210    0.00010412    0.00039664
     atom   18 type  5   force =     0.00017210    0.00010412   -0.00039665
     atom   19 type  5   force =     0.00010239   -0.00012733   -0.00026299
     atom   20 type  5   force =    -0.00010239   -0.00012733    0.00026299
     atom   21 type  5   force =    -0.00008024   -0.00000236    0.00031389
     atom   22 type  5   force =     0.00008024   -0.00000236   -0.00031389
     atom   23 type  5   force =    -0.00016523   -0.00020981    0.00109641
     atom   24 type  5   force =     0.00016523   -0.00020981   -0.00109640
     atom   25 type  5   force =     0.00033130    0.00191899    0.00143139
     atom   26 type  5   force =    -0.00033130    0.00191899   -0.00143138
     atom   27 type  5   force =     0.00028460    0.00015077    0.00065361
     atom   28 type  5   force =    -0.00028460    0.00015077   -0.00065361
     atom   29 type  5   force =    -0.00006893    0.00020392   -0.00003072
     atom   30 type  5   force =     0.00006893    0.00020392    0.00003072
     atom   31 type  5   force =     0.00025701   -0.00038969   -0.00026782
     atom   32 type  5   force =    -0.00025701   -0.00038968    0.00026782
     atom   33 type  5   force =     0.00088983   -0.00149224    0.00102819
     atom   34 type  5   force =    -0.00088983   -0.00149224   -0.00102819
     atom   35 type  5   force =     0.00154961   -0.00037228   -0.00123095
     atom   36 type  5   force =    -0.00154961   -0.00037228    0.00123095
     atom   37 type  5   force =     0.00000847    0.00011270   -0.00236286
     atom   38 type  5   force =    -0.00000847    0.00011270    0.00236286
     atom   39 type  5   force =     0.00017417    0.00007574   -0.00250003
     atom   40 type  5   force =    -0.00017417    0.00007574    0.00250003
     atom   41 type  2   force =    -0.00000333   -0.00014450    0.00075604
     atom   42 type  2   force =     0.00000333   -0.00014450   -0.00075604
     atom   43 type  2   force =     0.00038382   -0.00021076    0.00094297
     atom   44 type  2   force =    -0.00038382   -0.00021076   -0.00094297

     Total force =     0.002029     Total SCF correction =     0.000170

     Total Dispersion Force =     0.010248

     Computing stress (Cartesian axis) and pressure

          total   stress  (Ry/bohr**3)                   (kbar)     P=       -0.11
   0.00000023   0.00000000   0.00000021            0.03        0.00        0.03
   0.00000000  -0.00000052   0.00000000            0.00       -0.08        0.00
   0.00000021   0.00000000  -0.00000195            0.03        0.00       -0.29

     kinetic stress (kbar)  19394.58      0.00     -5.27
                                0.00  19388.74      0.00
                               -5.27      0.00  19076.66

     local   stress (kbar) -34836.88      0.00    -52.08
                                0.00 -34583.89      0.00
                              -52.08      0.00  12175.30

     nonloc. stress (kbar)   5147.05      0.00     -0.50
                                0.00   5147.17      0.00
                               -0.50      0.00   5139.27

     hartree stress (kbar)  19358.97     -0.00     18.58
                               -0.00  19245.16      0.00
                               18.58      0.00  -3663.89

     exc-cor stress (kbar)  -2824.09     -0.00      0.08
                               -0.00  -2824.07      0.00
                                0.08      0.00  -2820.74

     corecor stress (kbar)  -1881.11      0.00      0.11
                                0.00  -1881.18     -0.00
                                0.11     -0.00  -1882.89

     ewald   stress (kbar)  -4326.65     -0.00     38.87
                               -0.00  -4460.18      0.00
                               38.87      0.00 -27993.29

     hubbard stress (kbar)      0.00      0.00      0.00
                                0.00      0.00      0.00
                                0.00      0.00      0.00

     DFT-D   stress (kbar)    -31.85      0.00      0.24
                                0.00    -31.82     -0.00
                                0.24     -0.00    -30.71

     XDM     stress (kbar)      0.00      0.00      0.00
                                0.00      0.00      0.00
                                0.00      0.00      0.00

     dft-nl  stress (kbar)      0.00      0.00      0.00
                                0.00      0.00      0.00
                                0.00      0.00      0.00

     TS-vdW  stress (kbar)      0.00      0.00      0.00
                                0.00      0.00      0.00
                                0.00      0.00      0.00

     MDB     stress (kbar)      0.00      0.00      0.00
                                0.00      0.00      0.00
                                0.00      0.00      0.00

     3D-RISM stress (kbar)      0.00      0.00      0.00
                                0.00      0.00      0.00
                                0.00      0.00      0.00

     Writing all to output data dir ./temp/phl-fe0.save/ :
     XML data file, charge density, pseudopotentials, collected wavefunctions

     General routines

     Parallel routines

     PAW routines

   This run was terminated on:   8:17: 6  17Dec2024

   JOB DONE.