     Program PWSCF v.7.3.1 starts on 24Jan2025 at 14:37: 1

     Reading input from relax.in
Warning: card  &CELL ignored
Warning: card    CELL_DOFREE     = 'IBRAV' ignored
Warning: card  / ignored

     Current dimensions of program PWSCF are:
     Max number of different atomic species (ntypx) = 10
     Max number of k-points (npk) =  40000
     Max angular momentum in pseudopotentials (lmaxx) =  4
     file Al.pbe-n-kjpaw_psl.1.0.0.UPF: wavefunction(s)  3S 3P renormalized
     file Fe.pbe-spn-kjpaw_psl.1.0.0.UPF: wavefunction(s)  3P 3D renormalized
     file H.pbe-kjpaw_psl.1.0.0.UPF: wavefunction(s)  1S renormalized
     file K.pbe-spn-kjpaw_psl.1.0.0.UPF: wavefunction(s)  3S renormalized
     file Mg.pbe-spnl-kjpaw_psl.1.0.0.UPF: wavefunction(s)  2P renormalized
     file O.pbe-n-kjpaw_psl.1.0.0.UPF: wavefunction(s)  2S 2P renormalized
     file Si.pbe-n-kjpaw_psl.1.0.0.UPF: wavefunction(s)  3S 3P renormalized

     R & G space division:  proc/nbgrp/npool/nimage =       6
     Subspace diagonalization in iterative solution of the eigenvalue problem:
     one sub-group per band group will be used

     Using Slab Decomposition

     bravais-lattice index     =          -12
     lattice parameter (alat)  =      10.0136  a.u.
     unit-cell volume          =    3303.4414 (a.u.)^3
     number of atoms/cell      =           44
     number of atomic types    =            7
     number of electrons       =       262.00
     number of Kohn-Sham states=          157
     kinetic-energy cutoff     =      60.0000  Ry
     charge density cutoff     =     480.0000  Ry
     scf convergence threshold =      1.0E-06
     mixing beta               =       0.7000
     number of iterations used =            8  plain     mixing
     energy convergence thresh.=      1.0E-04
     force convergence thresh. =      1.0E-03
     Exchange-correlation= SLA  PW   PBX  PBC
                           (   1   4   3   4   0   0   0)
     nstep                     =           50

     celldm(1)=  10.013640  celldm(2)=   1.735306  celldm(3)=   1.926511
     celldm(4)=   0.000000  celldm(5)=  -0.177565  celldm(6)=   0.000000

     crystal axes: (cart. coord. in units of alat)
               a(1) = (   1.000000   0.000000   0.000000 )
               a(2) = (   0.000000   1.735306   0.000000 )
               a(3) = (  -0.342081   0.000000   1.895896 )

     reciprocal axes: (cart. coord. in units 2 pi/alat)
               b(1) = (  1.000000 -0.000000  0.180432 )
               b(2) = (  0.000000  0.576267 -0.000000 )
               b(3) = (  0.000000  0.000000  0.527455 )

     PseudoPot. # 1 for Al read from file:
     ./../../../pseudos/Al.pbe-n-kjpaw_psl.1.0.0.UPF
     MD5 check sum: 502b6b27b9c6270cab5dd1084b96fa6d
     Pseudo is Projector augmented-wave + core cor, Zval =  3.0
     Generated using &quot;atomic&quot; code by A. Dal Corso  v.6.3
     Shape of augmentation charge: PSQ
     Using radial grid of 1135 points,  6 beta functions with:
                l(1) =   0
                l(2) =   0
                l(3) =   1
                l(4) =   1
                l(5) =   2
                l(6) =   2
     Q(r) pseudized with 0 coefficients

     PseudoPot. # 2 for Fe read from file:
     ./../../../pseudos/Fe.pbe-spn-kjpaw_psl.1.0.0.UPF
     MD5 check sum: fc81f059e5c5069939230b1155715ae8
     Pseudo is Projector augmented-wave + core cor, Zval = 16.0
     Generated using &quot;atomic&quot; code by A. Dal Corso  v.6.3
     Shape of augmentation charge: PSQ
     Using radial grid of 1191 points,  6 beta functions with:
                l(1) =   0
                l(2) =   0
                l(3) =   1
                l(4) =   1
                l(5) =   2
                l(6) =   2
     Q(r) pseudized with 0 coefficients

     PseudoPot. # 3 for H  read from file:
     ./../../../pseudos/H.pbe-kjpaw_psl.1.0.0.UPF
     MD5 check sum: d81a744832360e4a8af0b0b5b123bc2a
     Pseudo is Projector augmented-wave, Zval =  1.0
     Generated using &quot;atomic&quot; code by A. Dal Corso  v.6.3MaX
     Shape of augmentation charge: PSQ
     Using radial grid of  929 points,  2 beta functions with:
                l(1) =   0
                l(2) =   0
     Q(r) pseudized with 0 coefficients

     PseudoPot. # 4 for K  read from file:
     ./../../../pseudos/K.pbe-spn-kjpaw_psl.1.0.0.UPF
     MD5 check sum: 34cc42130a09071ebe376fd42eb21491
     Pseudo is Projector augmented-wave + core cor, Zval =  9.0
     Generated using &quot;atomic&quot; code by A. Dal Corso  v.6.2.2
     Shape of augmentation charge: PSQ
     Using radial grid of 1165 points,  6 beta functions with:
                l(1) =   0
                l(2) =   0
                l(3) =   1
                l(4) =   1
                l(5) =   2
                l(6) =   2
     Q(r) pseudized with 0 coefficients

     PseudoPot. # 5 for Mg read from file:
     ./../../../pseudos/Mg.pbe-spnl-kjpaw_psl.1.0.0.UPF
     MD5 check sum: fda14e0d92a6a9a5ebed782e5a4b3067
     Pseudo is Projector augmented-wave + core cor, Zval = 10.0
     Generated using &quot;atomic&quot; code by A. Dal Corso  v.6.3
     Shape of augmentation charge: PSQ
     Using radial grid of 1129 points,  4 beta functions with:
                l(1) =   0
                l(2) =   0
                l(3) =   1
                l(4) =   1
     Q(r) pseudized with 0 coefficients

     PseudoPot. # 6 for O  read from file:
     ./../../../pseudos/O.pbe-n-kjpaw_psl.1.0.0.UPF
     MD5 check sum: e99d9cef9b487d1ca56f5b95ecd0fd7a
     Pseudo is Projector augmented-wave + core cor, Zval =  6.0
     Generated using &quot;atomic&quot; code by A. Dal Corso  v.6.3
     Shape of augmentation charge: PSQ
     Using radial grid of 1095 points,  4 beta functions with:
                l(1) =   0
                l(2) =   0
                l(3) =   1
                l(4) =   1
     Q(r) pseudized with 0 coefficients

     PseudoPot. # 7 for Si read from file:
     ./../../../pseudos/Si.pbe-n-kjpaw_psl.1.0.0.UPF
     MD5 check sum: c39c59da582df4a0d9f10159256ea34e
     Pseudo is Projector augmented-wave + core cor, Zval =  4.0
     Generated using &quot;atomic&quot; code by A. Dal Corso  v.6.3
     Shape of augmentation charge: PSQ
     Using radial grid of 1141 points,  6 beta functions with:
                l(1) =   0
                l(2) =   0
                l(3) =   1
                l(4) =   1
                l(5) =   2
                l(6) =   2
     Q(r) pseudized with 0 coefficients

     atomic species   valence    mass     pseudopotential
     Al                3.00    26.98154     Al( 1.00)
     Fe               16.00    55.84500     Fe( 1.00)
     H                 1.00     1.00794     H ( 1.00)
     K                 9.00    39.09830     K ( 1.00)
     Mg               10.00    24.30500     Mg( 1.00)
     O                 6.00    15.99940     O ( 1.00)
     Si                4.00    28.08550     Si( 1.00)

     Starting magnetic structure
     atomic species   magnetization
     Al              0.000
     Fe              0.300
     H               0.000
     K               0.000
     Mg              0.000
     O               0.000
     Si              0.000

      2 Sym. Ops. (no inversion) found

                                    s                        frac. trans.

      isym =  1     identity

 cryst.   s( 1) = (     1          0          0      )
                  (     0          1          0      )
                  (     0          0          1      )

 cart.    s( 1) = (  1.0000000  0.0000000 -0.0000000 )
                  (  0.0000000  1.0000000  0.0000000 )
                  (  0.0000000  0.0000000  1.0000000 )

      isym =  2     180 deg rotation - cart. axis [0,1,0]

 cryst.   s( 2) = (    -1          0          0      )
                  (     0          1          0      )
                  (     0          0         -1      )

 cart.    s( 2) = ( -1.0000000  0.0000000  0.0000000 )
                  (  0.0000000  1.0000000  0.0000000 )
                  (  0.0000000  0.0000000 -1.0000000 )

     point group C_2  (2)
     there are  2 classes
     the character table:

       E     C2
A      1.00  1.00
B      1.00 -1.00

     the symmetry operations in each class and the name of the first element:

     E        1
          identity
     C2       2
          180 deg rotation - cart. axis [0,1,0]

   Cartesian axes

     site n.     atom                  positions (alat units)
         1        K      tau(   1) = (   0.0000000   0.8559224   0.0000000  )
         2        K      tau(   2) = (   0.5000000   0.0093568   0.0000000  )
         3        Mg     tau(   3) = (  -0.1710407   0.0067712   0.9479482  )
         4        Mg     tau(   4) = (  -0.1710407   0.5780843   0.9479482  )
         5        Mg     tau(   5) = (  -0.1710407   1.1543881   0.9479482  )
         6        Mg     tau(   6) = (   0.3289593   1.4480089   0.9479482  )
         7        Mg     tau(   7) = (   0.3289593   0.2986375   0.9479482  )
         8        Si     tau(   8) = (   0.0066674   0.2865251   0.4219393  )
         9        Si     tau(   9) = (   0.6512512   0.2865251   1.4739571  )
        10        Si     tau(  10) = (   0.6701371   1.4476688   1.4628623  )
        11        Si     tau(  11) = (  -0.0122184   1.4476688   0.4330341  )
        12        Si     tau(  12) = (   0.4872056   1.1568454   0.4292651  )
        13        Si     tau(  13) = (   0.1707131   1.1568454   1.4666313  )
        14        Al     tau(  14) = (   0.1506005   0.5746762   1.4713786  )
        15        Al     tau(  15) = (   0.5073182   0.5746762   0.4245178  )
        16        O      tau(  16) = (  -0.0043508   0.2833738   0.7297400  )
        17        O      tau(  17) = (   0.6622695   0.2833738   1.1661564  )
        18        O      tau(  18) = (   0.6658139   1.4451231   1.1576912  )
        19        O      tau(  19) = (  -0.0078952   1.4451231   0.7382052  )
        20        O      tau(  20) = (   0.4926234   1.1618863   0.7357690  )
        21        O      tau(  21) = (   0.1652953   1.1618863   1.1601274  )
        22        O      tau(  22) = (   0.1548298   0.5779784   1.1454267  )
        23        O      tau(  23) = (   0.5030889   0.5779784   0.7504697  )
        24        O      tau(  24) = (   0.2847398   0.3548857   0.3143567  )
        25        O      tau(  25) = (   0.3731789   0.3548857   1.5815397  )
        26        O      tau(  26) = (   0.9404978   1.7303189   0.3181314  )
        27        O      tau(  27) = (  -0.2825791   1.7303189   1.5777650  )
        28        O      tau(  28) = (   0.3988927   1.3439356   1.5754330  )
        29        O      tau(  29) = (   0.2590260   1.3439356   0.3204634  )
        30        O      tau(  30) = (   0.7582660   1.2710892   0.3185125  )
        31        O      tau(  31) = (  -0.1003473   1.2710892   1.5773839  )
        32        O      tau(  32) = (   0.4432368   0.8811364   0.3085875  )
        33        O      tau(  33) = (   0.2146819   0.8811364   1.5873090  )
        34        O      tau(  34) = (  -0.1423236   0.4782556   1.5925436  )
        35        O      tau(  35) = (   0.8002423   0.4782556   0.3033529  )
[...]
     atom   10 type  7   force =     0.00033567    0.00351320   -0.01315324
     atom   11 type  7   force =    -0.00033567    0.00351320    0.01315324
     atom   12 type  7   force =    -0.00148179   -0.01075527    0.01057311
     atom   13 type  7   force =     0.00148179   -0.01075527   -0.01057316
     atom   14 type  1   force =    -0.00069623   -0.00288691   -0.00901943
     atom   15 type  1   force =     0.00069623   -0.00288691    0.00901943
     atom   16 type  6   force =    -0.00013396    0.00019790    0.00646342
     atom   17 type  6   force =     0.00013394    0.00019790   -0.00646342
     atom   18 type  6   force =    -0.00014281    0.00006586   -0.00699636
     atom   19 type  6   force =     0.00014281    0.00006586    0.00699636
     atom   20 type  6   force =     0.00050382    0.00054912    0.00662269
     atom   21 type  6   force =    -0.00050382    0.00054912   -0.00662269
     atom   22 type  6   force =    -0.00056937   -0.00111232   -0.00262507
     atom   23 type  6   force =     0.00056937   -0.00111232    0.00262507
     atom   24 type  6   force =     0.00463018   -0.00186096   -0.00587442
     atom   25 type  6   force =    -0.00463018   -0.00186096    0.00587439
     atom   26 type  6   force =    -0.00364345    0.00079646   -0.00712544
     atom   27 type  6   force =     0.00364345    0.00079646    0.00712543
     atom   28 type  6   force =    -0.00167538    0.00241096    0.00737282
     atom   29 type  6   force =     0.00167538    0.00241096   -0.00737282
     atom   30 type  6   force =     0.00101024   -0.00233911   -0.00762044
     atom   31 type  6   force =    -0.00101024   -0.00233911    0.00762044
     atom   32 type  6   force =    -0.00262504   -0.00345984   -0.00644849
     atom   33 type  6   force =     0.00262503   -0.00345983    0.00644850
     atom   34 type  6   force =     0.00100338    0.00421329    0.00652387
     atom   35 type  6   force =    -0.00100338    0.00421329   -0.00652387
     atom   36 type  6   force =    -0.00191357    0.00057110    0.01103529
     atom   37 type  6   force =     0.00191358    0.00057110   -0.01103529
     atom   38 type  6   force =     0.00015041   -0.00147104    0.01096880
     atom   39 type  6   force =    -0.00015041   -0.00147103   -0.01096877
     atom   40 type  3   force =     0.00000000    0.00000000    0.00000000
     atom   41 type  3   force =     0.00000000    0.00000000    0.00000000
     atom   42 type  3   force =     0.00000000    0.00000000    0.00000000
     atom   43 type  3   force =     0.00000000    0.00000000    0.00000000
     atom   44 type  2   force =    -0.00000000   -0.00867495    0.00000000
     The Hubbard contrib.    to forces
     atom    1 type  4   force =     0.00000000    0.00000000    0.00000000
     atom    2 type  4   force =     0.00000000    0.00000000    0.00000000
     atom    3 type  5   force =     0.00000000    0.00000000    0.00000000
     atom    4 type  5   force =     0.00000000    0.00000000    0.00000000
     atom    5 type  5   force =     0.00000000    0.00000000    0.00000000
     atom    6 type  5   force =     0.00000000    0.00000000    0.00000000
     atom    7 type  5   force =     0.00000000    0.00000000    0.00000000
     atom    8 type  7   force =     0.00000000    0.00000000    0.00000000
     atom    9 type  7   force =     0.00000000    0.00000000    0.00000000
     atom   10 type  7   force =     0.00000000    0.00000000    0.00000000
     atom   11 type  7   force =     0.00000000    0.00000000    0.00000000
     atom   12 type  7   force =     0.00000000    0.00000000    0.00000000
     atom   13 type  7   force =     0.00000000    0.00000000    0.00000000
     atom   14 type  1   force =     0.00000000    0.00000000    0.00000000
     atom   15 type  1   force =     0.00000000    0.00000000    0.00000000
     atom   16 type  6   force =     0.00000000    0.00000000    0.00000000
     atom   17 type  6   force =     0.00000000    0.00000000    0.00000000
     atom   18 type  6   force =     0.00000000    0.00000000    0.00000000
     atom   19 type  6   force =     0.00000000    0.00000000    0.00000000
     atom   20 type  6   force =     0.00000000    0.00000000    0.00000000
     atom   21 type  6   force =     0.00000000    0.00000000    0.00000000
     atom   22 type  6   force =     0.00000000    0.00000000    0.00000000
     atom   23 type  6   force =     0.00000000    0.00000000    0.00000000
     atom   24 type  6   force =     0.00000000    0.00000000    0.00000000
     atom   25 type  6   force =     0.00000000    0.00000000    0.00000000
     atom   26 type  6   force =     0.00000000    0.00000000    0.00000000
     atom   27 type  6   force =     0.00000000    0.00000000    0.00000000
     atom   28 type  6   force =     0.00000000    0.00000000    0.00000000
     atom   29 type  6   force =     0.00000000    0.00000000    0.00000000
     atom   30 type  6   force =     0.00000000    0.00000000    0.00000000
     atom   31 type  6   force =     0.00000000    0.00000000    0.00000000
     atom   32 type  6   force =     0.00000000    0.00000000    0.00000000
     atom   33 type  6   force =     0.00000000    0.00000000    0.00000000
     atom   34 type  6   force =     0.00000000    0.00000000    0.00000000
     atom   35 type  6   force =     0.00000000    0.00000000    0.00000000
     atom   36 type  6   force =     0.00000000    0.00000000    0.00000000
     atom   37 type  6   force =     0.00000000    0.00000000    0.00000000
     atom   38 type  6   force =     0.00000000    0.00000000    0.00000000
     atom   39 type  6   force =     0.00000000    0.00000000    0.00000000
     atom   40 type  3   force =     0.00000000    0.00000000    0.00000000
     atom   41 type  3   force =     0.00000000    0.00000000    0.00000000
     atom   42 type  3   force =     0.00000000    0.00000000    0.00000000
     atom   43 type  3   force =     0.00000000    0.00000000    0.00000000
     atom   44 type  2   force =     0.00000000    0.00000000    0.00000000
     The SCF correction term to forces
     atom    1 type  4   force =     0.00000000   -0.00000686    0.00000000
     atom    2 type  4   force =    -0.00000000    0.00000608    0.00000000
     atom    3 type  5   force =    -0.00000000   -0.00001546    0.00000000
     atom    4 type  5   force =     0.00000000    0.00000030   -0.00000000
     atom    5 type  5   force =     0.00000000    0.00001118    0.00000000
     atom    6 type  5   force =     0.00000000   -0.00000754   -0.00000000
     atom    7 type  5   force =     0.00000000   -0.00001505    0.00000000
     atom    8 type  7   force =     0.00000151   -0.00000134   -0.00000520
     atom    9 type  7   force =    -0.00000151   -0.00000134    0.00000520
     atom   10 type  7   force =    -0.00000051    0.00000091   -0.00000076
     atom   11 type  7   force =     0.00000051    0.00000091    0.00000076
     atom   12 type  7   force =    -0.00000108    0.00000262    0.00000507
     atom   13 type  7   force =     0.00000108    0.00000262   -0.00000507
     atom   14 type  1   force =     0.00000087   -0.00000164    0.00000219
     atom   15 type  1   force =    -0.00000087   -0.00000164   -0.00000219
     atom   16 type  6   force =    -0.00000022   -0.00000647    0.00000330
     atom   17 type  6   force =     0.00000022   -0.00000647   -0.00000330
     atom   18 type  6   force =    -0.00000244   -0.00000022   -0.00000634
     atom   19 type  6   force =     0.00000244   -0.00000022    0.00000634
     atom   20 type  6   force =    -0.00000708    0.00000532    0.00000193
     atom   21 type  6   force =     0.00000708    0.00000532   -0.00000193
     atom   22 type  6   force =     0.00000343    0.00000034    0.00000629
     atom   23 type  6   force =    -0.00000343    0.00000034   -0.00000629
     atom   24 type  6   force =     0.00000303    0.00000079   -0.00000844
     atom   25 type  6   force =    -0.00000303    0.00000079    0.00000844
     atom   26 type  6   force =     0.00000093   -0.00000108   -0.00000486
     atom   27 type  6   force =    -0.00000093   -0.00000108    0.00000486
     atom   28 type  6   force =    -0.00000211   -0.00000011   -0.00000164
     atom   29 type  6   force =     0.00000211   -0.00000011    0.00000164
     atom   30 type  6   force =    -0.00000234    0.00000383   -0.00000114
     atom   31 type  6   force =     0.00000234    0.00000383    0.00000114
     atom   32 type  6   force =    -0.00000002    0.00000013   -0.00000004
     atom   33 type  6   force =     0.00000002    0.00000013    0.00000004
     atom   34 type  6   force =     0.00000403   -0.00000304    0.00001096
     atom   35 type  6   force =    -0.00000403   -0.00000304   -0.00001096
     atom   36 type  6   force =     0.00000468    0.00000680   -0.00000722
     atom   37 type  6   force =    -0.00000468    0.00000680    0.00000722
     atom   38 type  6   force =     0.00000045   -0.00000482    0.00000088
     atom   39 type  6   force =    -0.00000045   -0.00000482   -0.00000088
     atom   40 type  3   force =     0.00000056    0.00000074    0.00000130
     atom   41 type  3   force =    -0.00000056    0.00000074   -0.00000130
     atom   42 type  3   force =    -0.00000006   -0.00000037   -0.00000082
     atom   43 type  3   force =     0.00000006   -0.00000037    0.00000082
     atom   44 type  2   force =    -0.00000000    0.00003256    0.00000000

     DFT-D3 dispersion contribution to forces:
     atom    1 type  4   force =    -0.00000000    0.00053069    0.00000000
     atom    2 type  4   force =     0.00000000   -0.00040303    0.00000000
     atom    3 type  5   force =     0.00000000    0.00027631   -0.00000000
     atom    4 type  5   force =     0.00000000    0.00084438   -0.00000000
     atom    5 type  5   force =    -0.00000000   -0.00121282   -0.00000000
     atom    6 type  5   force =    -0.00000000    0.00108461    0.00000000
     atom    7 type  5   force =     0.00000000   -0.00035017   -0.00000000
     atom    8 type  7   force =     0.00004368   -0.00017101   -0.00039190
     atom    9 type  7   force =    -0.00004368   -0.00017101    0.00039190
     atom   10 type  7   force =     0.00003765    0.00017694    0.00035467
     atom   11 type  7   force =    -0.00003765    0.00017694   -0.00035467
     atom   12 type  7   force =    -0.00014668    0.00008668   -0.00010358
     atom   13 type  7   force =     0.00014668    0.00008668    0.00010358
     atom   14 type  1   force =     0.00013873    0.00011121   -0.00119974
     atom   15 type  1   force =    -0.00013873    0.00011121    0.00119974
     atom   16 type  6   force =    -0.00001956    0.00001521    0.00040884
     atom   17 type  6   force =     0.00001956    0.00001521   -0.00040884
     atom   18 type  6   force =     0.00001352    0.00004159   -0.00033480
     atom   19 type  6   force =    -0.00001352    0.00004159    0.00033480
     atom   20 type  6   force =    -0.00004807   -0.00010863    0.00042122
     atom   21 type  6   force =     0.00004807   -0.00010863   -0.00042122
     atom   22 type  6   force =    -0.00001415    0.00005645    0.00008756
     atom   23 type  6   force =     0.00001415    0.00005645   -0.00008756
     atom   24 type  6   force =    -0.00017229    0.00095925    0.00014554
     atom   25 type  6   force =     0.00017229    0.00095925   -0.00014554
     atom   26 type  6   force =     0.00080462    0.00006635    0.00017573
     atom   27 type  6   force =    -0.00080462    0.00006635   -0.00017573
     atom   28 type  6   force =     0.00042614   -0.00061321   -0.00013154
     atom   29 type  6   force =    -0.00042614   -0.00061321    0.00013154
     atom   30 type  6   force =    -0.00028013    0.00046930    0.00016057
     atom   31 type  6   force =     0.00028013    0.00046930   -0.00016057
     atom   32 type  6   force =     0.00088264   -0.00042717    0.00038535
     atom   33 type  6   force =    -0.00088264   -0.00042717   -0.00038535
     atom   34 type  6   force =     0.00060908   -0.00048994   -0.00034554
     atom   35 type  6   force =    -0.00060908   -0.00048994    0.00034554
     atom   36 type  6   force =     0.00017117   -0.00002987   -0.00044318
     atom   37 type  6   force =    -0.00017117   -0.00002987    0.00044318
     atom   38 type  6   force =     0.00000460    0.00006137   -0.00052707
     atom   39 type  6   force =    -0.00000460    0.00006137    0.00052707
     atom   40 type  3   force =     0.00005933    0.00010063   -0.00012937
     atom   41 type  3   force =    -0.00005933    0.00010063    0.00012937
     atom   42 type  3   force =     0.00008686   -0.00041210   -0.00031402
     atom   43 type  3   force =    -0.00008686   -0.00041210    0.00031402
     atom   44 type  2   force =     0.00000000   -0.00055611    0.00000000

     Total force =     0.004166     Total SCF correction =     0.000057

     DFT-D3 dispersion Force =     0.004405
     Energy error            =      3.4E-05 Ry
     Gradient error          =      9.5E-04 Ry/Bohr

     bfgs converged in  10 scf cycles and   9 bfgs steps
     (criteria: energy <  1.0E-04 Ry, force <  1.0E-03 Ry/Bohr)

     End of BFGS Geometry Optimization

     Final energy             =   -2631.2467866841 Ry

     File ./temp/phl-fe1-fe4.bfgs deleted, as requested
Begin final coordinates

ATOMIC_POSITIONS (crystal)
K                0.0000000000        0.4932956391        0.0000000000
K                0.5000000000        0.0046699405        0.0000000000
Mg              -0.0000000000        0.0040025403        0.5000000000
Mg              -0.0000000000        0.3325438843        0.5000000000
Mg              -0.0000000000        0.6659010380        0.5000000000
Mg               0.5000000000        0.8352444242        0.5000000000
Mg               0.5000000000        0.1693805314        0.5000000000
Si               0.0827577912        0.1650904478        0.2219737022
Si               0.9172421948        0.1650904478        0.7780263278
Si               0.9348303986        0.8342902481        0.7720662991
Si               0.0651696014        0.8342902481        0.2279337009
Si               0.5644053427        0.6674343879        0.2259761687
Si               0.4355946573        0.6674343879        0.7740238163
Al               0.4160084814        0.3312426105        0.7763343836
Al               0.5839915186        0.3312426105        0.2236656164
O                0.1275721876        0.1631952740        0.3844165380
O                0.8724277824        0.1631952740        0.6155834910
O                0.8743071296        0.8334075585        0.6109694922
O                0.1256928704        0.8334075585        0.3890305078
O                0.6276619102        0.6738390572        0.3875764409
O                0.3723380898        0.6738390572        0.6124235591
O                0.3601433598        0.3284648942        0.6036684047
O                0.6398566402        0.3284648942        0.3963315953
O                0.3419606610        0.2033475531        0.1642779648
O                0.6580393390        0.2033475531        0.8357220052
O                0.9952452438        0.9973285448        0.1668863931
O                0.0047547562        0.9973285448        0.8331135919
O                0.6838909239        0.7750067373        0.8323870862
O                0.3161090761        0.7750067373        0.1676129138
O                0.8152004365        0.7322702240        0.1661080793
O                0.1847995635        0.7322702240        0.8338919207
O                0.4966025183        0.5080867431        0.1625780725
O                0.5033974517        0.5080867431        0.8374219425
O                0.1441810514        0.2765192666        0.8416965912
O                0.8558189636        0.2765192666        0.1583034088
O                0.1181399309        0.5036977919        0.3916052355
O                0.8818600841        0.5036977919        0.6083947645
O                0.6329682947        0.9992012314        0.3971940062
O                0.3670317053        0.9992012314        0.6028059638
H                0.1008635776        0.4954875172        0.2960555618
H                0.8991364524        0.4954875172        0.7039444382
H                0.5957150690        0.0136490845        0.3019911782
H                0.4042849310        0.0136490845        0.6980088218
Fe               0.5000000000        0.4918387108        0.5000000000
End final coordinates

     Writing all to output data dir ./temp/phl-fe1-fe4.save/ :
     XML data file, charge density, pseudopotentials, collected wavefunctions

     General routines

     Parallel routines

     PAW routines

   This run was terminated on:   2:21:50  25Jan2025

   JOB DONE.