     Program PWSCF v.7.3.1 starts on 15Dec2024 at 15:14:28

     Reading input from relax.in
Warning: card  &CELL ignored
Warning: card    CELL_DOFREE     = 'IBRAV' ignored
Warning: card  / ignored

     Current dimensions of program PWSCF are:
     Max number of different atomic species (ntypx) = 10
     Max number of k-points (npk) =  40000
     Max angular momentum in pseudopotentials (lmaxx) =  4
     file Al.pbe-n-kjpaw_psl.1.0.0.UPF: wavefunction(s)  3S 3P renormalized
     file H.pbe-kjpaw_psl.1.0.0.UPF: wavefunction(s)  1S renormalized
     file K.pbe-spn-kjpaw_psl.1.0.0.UPF: wavefunction(s)  3S renormalized
     file Mg.pbe-spnl-kjpaw_psl.1.0.0.UPF: wavefunction(s)  2P renormalized
     file O.pbe-n-kjpaw_psl.1.0.0.UPF: wavefunction(s)  2S 2P renormalized
     file Si.pbe-n-kjpaw_psl.1.0.0.UPF: wavefunction(s)  3S 3P renormalized

     R & G space division:  proc/nbgrp/npool/nimage =       8
     Subspace diagonalization in iterative solution of the eigenvalue problem:
     a serial algorithm will be used

     Using Slab Decomposition

     bravais-lattice index     =          -12
     lattice parameter (alat)  =      10.0136  a.u.
     unit-cell volume          =    3303.4414 (a.u.)^3
     number of atoms/cell      =           44
     number of atomic types    =            6
     number of electrons       =       256.00
     number of Kohn-Sham states=          128
     kinetic-energy cutoff     =      60.0000  Ry
     charge density cutoff     =     480.0000  Ry
     scf convergence threshold =      1.0E-06
     mixing beta               =       0.7000
     number of iterations used =            8  plain     mixing
     energy convergence thresh.=      1.0E-04
     force convergence thresh. =      1.0E-03
     Exchange-correlation= SLA  PW   PBX  PBC
                           (   1   4   3   4   0   0   0)
     nstep                     =           50

     celldm(1)=  10.013640  celldm(2)=   1.735306  celldm(3)=   1.926511
     celldm(4)=   0.000000  celldm(5)=  -0.177565  celldm(6)=   0.000000

     crystal axes: (cart. coord. in units of alat)
               a(1) = (   1.000000   0.000000   0.000000 )
               a(2) = (   0.000000   1.735306   0.000000 )
               a(3) = (  -0.342081   0.000000   1.895896 )

     reciprocal axes: (cart. coord. in units 2 pi/alat)
               b(1) = (  1.000000 -0.000000  0.180432 )
               b(2) = (  0.000000  0.576267 -0.000000 )
               b(3) = (  0.000000  0.000000  0.527455 )

     PseudoPot. # 1 for Al read from file:
     ./../../pseudos/Al.pbe-n-kjpaw_psl.1.0.0.UPF
     MD5 check sum: 502b6b27b9c6270cab5dd1084b96fa6d
     Pseudo is Projector augmented-wave + core cor, Zval =  3.0
     Generated using &quot;atomic&quot; code by A. Dal Corso  v.6.3
     Shape of augmentation charge: PSQ
     Using radial grid of 1135 points,  6 beta functions with:
                l(1) =   0
                l(2) =   0
                l(3) =   1
                l(4) =   1
                l(5) =   2
                l(6) =   2
     Q(r) pseudized with 0 coefficients

     PseudoPot. # 2 for H  read from file:
     ./../../pseudos/H.pbe-kjpaw_psl.1.0.0.UPF
     MD5 check sum: d81a744832360e4a8af0b0b5b123bc2a
     Pseudo is Projector augmented-wave, Zval =  1.0
     Generated using &quot;atomic&quot; code by A. Dal Corso  v.6.3MaX
     Shape of augmentation charge: PSQ
     Using radial grid of  929 points,  2 beta functions with:
                l(1) =   0
                l(2) =   0
     Q(r) pseudized with 0 coefficients

     PseudoPot. # 3 for K  read from file:
     ./../../pseudos/K.pbe-spn-kjpaw_psl.1.0.0.UPF
     MD5 check sum: 34cc42130a09071ebe376fd42eb21491
     Pseudo is Projector augmented-wave + core cor, Zval =  9.0
     Generated using &quot;atomic&quot; code by A. Dal Corso  v.6.2.2
     Shape of augmentation charge: PSQ
     Using radial grid of 1165 points,  6 beta functions with:
                l(1) =   0
                l(2) =   0
                l(3) =   1
                l(4) =   1
                l(5) =   2
                l(6) =   2
     Q(r) pseudized with 0 coefficients

     PseudoPot. # 4 for Mg read from file:
     ./../../pseudos/Mg.pbe-spnl-kjpaw_psl.1.0.0.UPF
     MD5 check sum: fda14e0d92a6a9a5ebed782e5a4b3067
     Pseudo is Projector augmented-wave + core cor, Zval = 10.0
     Generated using &quot;atomic&quot; code by A. Dal Corso  v.6.3
     Shape of augmentation charge: PSQ
     Using radial grid of 1129 points,  4 beta functions with:
                l(1) =   0
                l(2) =   0
                l(3) =   1
                l(4) =   1
     Q(r) pseudized with 0 coefficients

     PseudoPot. # 5 for O  read from file:
     ./../../pseudos/O.pbe-n-kjpaw_psl.1.0.0.UPF
     MD5 check sum: e99d9cef9b487d1ca56f5b95ecd0fd7a
     Pseudo is Projector augmented-wave + core cor, Zval =  6.0
     Generated using &quot;atomic&quot; code by A. Dal Corso  v.6.3
     Shape of augmentation charge: PSQ
     Using radial grid of 1095 points,  4 beta functions with:
                l(1) =   0
                l(2) =   0
                l(3) =   1
                l(4) =   1
     Q(r) pseudized with 0 coefficients

     PseudoPot. # 6 for Si read from file:
     ./../../pseudos/Si.pbe-n-kjpaw_psl.1.0.0.UPF
     MD5 check sum: c39c59da582df4a0d9f10159256ea34e
     Pseudo is Projector augmented-wave + core cor, Zval =  4.0
     Generated using &quot;atomic&quot; code by A. Dal Corso  v.6.3
     Shape of augmentation charge: PSQ
     Using radial grid of 1141 points,  6 beta functions with:
                l(1) =   0
                l(2) =   0
                l(3) =   1
                l(4) =   1
                l(5) =   2
                l(6) =   2
     Q(r) pseudized with 0 coefficients

     atomic species   valence    mass     pseudopotential
     Al                3.00    26.98154     Al( 1.00)
     H                 1.00     1.00794     H ( 1.00)
     K                 9.00    39.09830     K ( 1.00)
     Mg               10.00    24.30500     Mg( 1.00)
     O                 6.00    15.99940     O ( 1.00)
     Si                4.00    28.08550     Si( 1.00)

      2 Sym. Ops. (no inversion) found

                                    s                        frac. trans.

      isym =  1     identity

 cryst.   s( 1) = (     1          0          0      )
                  (     0          1          0      )
                  (     0          0          1      )

 cart.    s( 1) = (  1.0000000  0.0000000 -0.0000000 )
                  (  0.0000000  1.0000000  0.0000000 )
                  (  0.0000000  0.0000000  1.0000000 )

      isym =  2     180 deg rotation - cart. axis [0,1,0]

 cryst.   s( 2) = (    -1          0          0      )
                  (     0          1          0      )
                  (     0          0         -1      )

 cart.    s( 2) = ( -1.0000000  0.0000000  0.0000000 )
                  (  0.0000000  1.0000000  0.0000000 )
                  (  0.0000000  0.0000000 -1.0000000 )

     point group C_2  (2)
     there are  2 classes
     the character table:

       E     C2
A      1.00  1.00
B      1.00 -1.00

     the symmetry operations in each class and the name of the first element:

     E        1
          identity
     C2       2
          180 deg rotation - cart. axis [0,1,0]

   Cartesian axes

     site n.     atom                  positions (alat units)
         1        K      tau(   1) = (   0.0000000   0.8559224   0.0000000  )
         2        K      tau(   2) = (   0.5000000   0.0093568   0.0000000  )
         3        Mg     tau(   3) = (  -0.1710407   0.0067712   0.9479482  )
         4        Mg     tau(   4) = (  -0.1710407   0.5780843   0.9479482  )
         5        Mg     tau(   5) = (  -0.1710407   1.1543881   0.9479482  )
         6        Mg     tau(   6) = (   0.3289593   0.8562226   0.9479482  )
         7        Mg     tau(   7) = (   0.3289593   1.4480089   0.9479482  )
         8        Mg     tau(   8) = (   0.3289593   0.2986375   0.9479482  )
         9        Si     tau(   9) = (   0.0066674   0.2865251   0.4219393  )
        10        Si     tau(  10) = (   0.6512512   0.2865251   1.4739571  )
        11        Si     tau(  11) = (   0.6701371   1.4476688   1.4628623  )
        12        Si     tau(  12) = (  -0.0122184   1.4476688   0.4330341  )
        13        Si     tau(  13) = (   0.4872056   1.1568454   0.4292651  )
        14        Si     tau(  14) = (   0.1707131   1.1568454   1.4666313  )
        15        Al     tau(  15) = (   0.1506005   0.5746762   1.4713786  )
        16        Al     tau(  16) = (   0.5073182   0.5746762   0.4245178  )
        17        O      tau(  17) = (  -0.0043508   0.2833738   0.7297400  )
        18        O      tau(  18) = (   0.6622695   0.2833738   1.1661564  )
        19        O      tau(  19) = (   0.6658139   1.4451231   1.1576912  )
        20        O      tau(  20) = (  -0.0078952   1.4451231   0.7382052  )
        21        O      tau(  21) = (   0.4926234   1.1618863   0.7357690  )
        22        O      tau(  22) = (   0.1652953   1.1618863   1.1601274  )
        23        O      tau(  23) = (   0.1548298   0.5779784   1.1454267  )
        24        O      tau(  24) = (   0.5030889   0.5779784   0.7504697  )
        25        O      tau(  25) = (   0.2847398   0.3548857   0.3143567  )
        26        O      tau(  26) = (   0.3731789   0.3548857   1.5815397  )
        27        O      tau(  27) = (   0.9404978   1.7303189   0.3181314  )
        28        O      tau(  28) = (  -0.2825791   1.7303189   1.5777650  )
        29        O      tau(  29) = (   0.3988927   1.3439356   1.5754330  )
        30        O      tau(  30) = (   0.2590260   1.3439356   0.3204634  )
        31        O      tau(  31) = (   0.7582660   1.2710892   0.3185125  )
        32        O      tau(  32) = (  -0.1003473   1.2710892   1.5773839  )
        33        O      tau(  33) = (   0.4432368   0.8811364   0.3085875  )
        34        O      tau(  34) = (   0.2146819   0.8811364   1.5873090  )
        35        O      tau(  35) = (  -0.1423236   0.4782556   1.5925436  )
        36        O      tau(  36) = (   0.8002423   0.4782556   0.3033529  )
        37        O      tau(  37) = (  -0.0041068   0.8750247   0.7469263  )
        38        O      tau(  38) = (   0.6620255   0.8750247   1.1489701  )
        39        O      tau(  39) = (   0.4966158   1.7335917   0.7534577  )
        40        O      tau(  40) = (   0.1613029   1.7335917   1.1424387  )
        41        H      tau(  41) = (  -0.0032097   0.8603995   0.5673129  )
        42        H      tau(  42) = (   0.6611284   0.8603995   1.3285835  )
        43        H      tau(  43) = (   0.4926802   0.0219534   0.5746291  )
        44        H      tau(  44) = (   0.1652385   0.0219534   1.3212673  )

     Parameters for Dispersion (Grimme-D2) Correction:
       atom      VdW radius       C_6

        Al         3.097        374.319
        H          1.892          4.857
        K          2.806        374.666
        Mg         2.578        198.087
        O          2.536         24.284
        Si         3.243        320.200

[...]
     atom    2 type  3   force =     0.00000000    0.00000000    0.00000000
     atom    3 type  4   force =     0.00000000    0.00000000    0.00000000
     atom    4 type  4   force =     0.00000000    0.00000000    0.00000000
     atom    5 type  4   force =     0.00000000    0.00000000    0.00000000
     atom    6 type  4   force =     0.00000000    0.00000000    0.00000000
     atom    7 type  4   force =     0.00000000    0.00000000    0.00000000
     atom    8 type  4   force =     0.00000000    0.00000000    0.00000000
     atom    9 type  6   force =     0.00000000    0.00000000    0.00000000
     atom   10 type  6   force =     0.00000000    0.00000000    0.00000000
     atom   11 type  6   force =     0.00000000    0.00000000    0.00000000
     atom   12 type  6   force =     0.00000000    0.00000000    0.00000000
     atom   13 type  6   force =     0.00000000    0.00000000    0.00000000
     atom   14 type  6   force =     0.00000000    0.00000000    0.00000000
     atom   15 type  1   force =     0.00000000    0.00000000    0.00000000
     atom   16 type  1   force =     0.00000000    0.00000000    0.00000000
     atom   17 type  5   force =     0.00000000    0.00000000    0.00000000
     atom   18 type  5   force =     0.00000000    0.00000000    0.00000000
     atom   19 type  5   force =     0.00000000    0.00000000    0.00000000
     atom   20 type  5   force =     0.00000000    0.00000000    0.00000000
     atom   21 type  5   force =     0.00000000    0.00000000    0.00000000
     atom   22 type  5   force =     0.00000000    0.00000000    0.00000000
     atom   23 type  5   force =     0.00000000    0.00000000    0.00000000
     atom   24 type  5   force =     0.00000000    0.00000000    0.00000000
     atom   25 type  5   force =     0.00000000    0.00000000    0.00000000
     atom   26 type  5   force =     0.00000000    0.00000000    0.00000000
     atom   27 type  5   force =     0.00000000    0.00000000    0.00000000
     atom   28 type  5   force =     0.00000000    0.00000000    0.00000000
     atom   29 type  5   force =     0.00000000    0.00000000    0.00000000
     atom   30 type  5   force =     0.00000000    0.00000000    0.00000000
     atom   31 type  5   force =     0.00000000    0.00000000    0.00000000
     atom   32 type  5   force =     0.00000000    0.00000000    0.00000000
     atom   33 type  5   force =     0.00000000    0.00000000    0.00000000
     atom   34 type  5   force =     0.00000000    0.00000000    0.00000000
     atom   35 type  5   force =     0.00000000    0.00000000    0.00000000
     atom   36 type  5   force =     0.00000000    0.00000000    0.00000000
     atom   37 type  5   force =     0.00000000    0.00000000    0.00000000
     atom   38 type  5   force =     0.00000000    0.00000000    0.00000000
     atom   39 type  5   force =     0.00000000    0.00000000    0.00000000
     atom   40 type  5   force =     0.00000000    0.00000000    0.00000000
     atom   41 type  2   force =     0.00000000    0.00000000    0.00000000
     atom   42 type  2   force =     0.00000000    0.00000000    0.00000000
     atom   43 type  2   force =     0.00000000    0.00000000    0.00000000
     atom   44 type  2   force =     0.00000000    0.00000000    0.00000000
     The SCF correction term to forces
     atom    1 type  3   force =    -0.00000000    0.00000186    0.00000000
     atom    2 type  3   force =    -0.00000000   -0.00000171    0.00000000
     atom    3 type  4   force =     0.00000000   -0.00002955   -0.00000000
     atom    4 type  4   force =     0.00000000    0.00001383    0.00000000
     atom    5 type  4   force =     0.00000000    0.00002110   -0.00000000
     atom    6 type  4   force =    -0.00000000    0.00000218   -0.00000000
     atom    7 type  4   force =     0.00000000    0.00004817   -0.00000000
     atom    8 type  4   force =    -0.00000000   -0.00001822    0.00000000
     atom    9 type  6   force =     0.00000102   -0.00000302   -0.00001007
     atom   10 type  6   force =    -0.00000102   -0.00000302    0.00001007
     atom   11 type  6   force =    -0.00000591    0.00000121    0.00000882
     atom   12 type  6   force =     0.00000591    0.00000121   -0.00000882
     atom   13 type  6   force =    -0.00000483    0.00000708   -0.00001508
     atom   14 type  6   force =     0.00000483    0.00000708    0.00001508
     atom   15 type  1   force =     0.00000070   -0.00000333    0.00000755
     atom   16 type  1   force =    -0.00000070   -0.00000333   -0.00000755
     atom   17 type  5   force =     0.00000028   -0.00000672   -0.00001748
     atom   18 type  5   force =    -0.00000028   -0.00000672    0.00001748
     atom   19 type  5   force =     0.00000105    0.00000561    0.00001564
     atom   20 type  5   force =    -0.00000105    0.00000561   -0.00001564
     atom   21 type  5   force =     0.00000224    0.00000758   -0.00001153
     atom   22 type  5   force =    -0.00000224    0.00000758    0.00001153
     atom   23 type  5   force =     0.00000032   -0.00000393    0.00002005
     atom   24 type  5   force =    -0.00000032   -0.00000393   -0.00002005
     atom   25 type  5   force =     0.00000978   -0.00000334   -0.00000591
     atom   26 type  5   force =    -0.00000978   -0.00000334    0.00000591
     atom   27 type  5   force =    -0.00000497    0.00000085    0.00000026
     atom   28 type  5   force =     0.00000497    0.00000085   -0.00000026
     atom   29 type  5   force =    -0.00000169    0.00001257    0.00000757
     atom   30 type  5   force =     0.00000169    0.00001257   -0.00000757
     atom   31 type  5   force =     0.00000332    0.00000351   -0.00000242
     atom   32 type  5   force =    -0.00000332    0.00000351    0.00000242
     atom   33 type  5   force =    -0.00000148   -0.00000278   -0.00000410
     atom   34 type  5   force =     0.00000148   -0.00000278    0.00000410
     atom   35 type  5   force =     0.00000971   -0.00001096    0.00000407
     atom   36 type  5   force =    -0.00000971   -0.00001096   -0.00000407
     atom   37 type  5   force =    -0.00000089    0.00000193   -0.00000911
     atom   38 type  5   force =     0.00000089    0.00000193    0.00000911
     atom   39 type  5   force =     0.00000006    0.00000152   -0.00001928
     atom   40 type  5   force =    -0.00000006    0.00000152    0.00001928
     atom   41 type  2   force =     0.00000006    0.00000071    0.00000038
     atom   42 type  2   force =    -0.00000006    0.00000071   -0.00000038
     atom   43 type  2   force =     0.00000019   -0.00000071   -0.00000206
     atom   44 type  2   force =    -0.00000019   -0.00000071    0.00000206

     Dispersion contribution to forces:
     atom    1 type  3   force =    -0.00000000    0.00245281   -0.00000000
     atom    2 type  3   force =    -0.00000000   -0.00184710   -0.00000000
     atom    3 type  4   force =    -0.00000000    0.00053651    0.00000000
     atom    4 type  4   force =    -0.00000000    0.00061294    0.00000000
     atom    5 type  4   force =    -0.00000000   -0.00138459   -0.00000000
     atom    6 type  4   force =     0.00000000   -0.00009529   -0.00000000
     atom    7 type  4   force =     0.00000000    0.00133002   -0.00000000
     atom    8 type  4   force =     0.00000000   -0.00085706    0.00000000
     atom    9 type  6   force =    -0.00018031   -0.00046496    0.00129768
     atom   10 type  6   force =     0.00018031   -0.00046496   -0.00129769
     atom   11 type  6   force =    -0.00005275    0.00026089   -0.00076544
     atom   12 type  6   force =     0.00005275    0.00026089    0.00076544
     atom   13 type  6   force =    -0.00005645    0.00048460    0.00118955
     atom   14 type  6   force =     0.00005645    0.00048460   -0.00118955
     atom   15 type  1   force =    -0.00005181   -0.00028596   -0.00331640
     atom   16 type  1   force =     0.00005181   -0.00028596    0.00331640
     atom   17 type  5   force =    -0.00017743    0.00009791    0.00039315
     atom   18 type  5   force =     0.00017743    0.00009791   -0.00039316
     atom   19 type  5   force =     0.00010426   -0.00012785   -0.00025877
     atom   20 type  5   force =    -0.00010426   -0.00012785    0.00025877
     atom   21 type  5   force =    -0.00007694    0.00000594    0.00031467
     atom   22 type  5   force =     0.00007694    0.00000594   -0.00031467
     atom   23 type  5   force =    -0.00016460   -0.00020699    0.00106849
     atom   24 type  5   force =     0.00016460   -0.00020699   -0.00106849
     atom   25 type  5   force =     0.00034764    0.00191097    0.00143134
     atom   26 type  5   force =    -0.00034764    0.00191097   -0.00143134
     atom   27 type  5   force =     0.00027869    0.00014799    0.00064536
     atom   28 type  5   force =    -0.00027869    0.00014799   -0.00064536
     atom   29 type  5   force =    -0.00008337    0.00022321   -0.00001918
     atom   30 type  5   force =     0.00008337    0.00022321    0.00001918
     atom   31 type  5   force =     0.00025746   -0.00040240   -0.00026973
     atom   32 type  5   force =    -0.00025746   -0.00040240    0.00026973
     atom   33 type  5   force =     0.00087230   -0.00149429    0.00101116
     atom   34 type  5   force =    -0.00087230   -0.00149429   -0.00101116
     atom   35 type  5   force =     0.00156751   -0.00037529   -0.00123160
     atom   36 type  5   force =    -0.00156751   -0.00037529    0.00123160
     atom   37 type  5   force =     0.00000795    0.00011531   -0.00234912
     atom   38 type  5   force =    -0.00000795    0.00011531    0.00234912
     atom   39 type  5   force =     0.00017310    0.00006959   -0.00249900
     atom   40 type  5   force =    -0.00017310    0.00006959    0.00249900
     atom   41 type  2   force =    -0.00000370   -0.00014541    0.00075444
     atom   42 type  2   force =     0.00000370   -0.00014541   -0.00075444
     atom   43 type  2   force =     0.00036912   -0.00018738    0.00093706
     atom   44 type  2   force =    -0.00036912   -0.00018738   -0.00093706

     Total force =     0.003572     Total SCF correction =     0.000101

     Total Dispersion Force =     0.010244

     Computing stress (Cartesian axis) and pressure

          total   stress  (Ry/bohr**3)                   (kbar)     P=       -1.85
  -0.00001786   0.00000000  -0.00000107           -2.63        0.00       -0.16
   0.00000000  -0.00001374   0.00000000            0.00       -2.02        0.00
  -0.00000107   0.00000000  -0.00000606           -0.16        0.00       -0.89

     kinetic stress (kbar)  19365.90      0.00     -5.52
                                0.00  19361.10      0.00
                               -5.52      0.00  19051.35

     local   stress (kbar) -34741.90      0.00    -41.67
                                0.00 -34504.35      0.00
                              -41.67      0.00  12089.81

     nonloc. stress (kbar)   5140.70      0.00     -0.45
                                0.00   5140.75      0.00
                               -0.45      0.00   5132.80

     hartree stress (kbar)  19308.26     -0.00     14.41
                               -0.00  19201.30      0.00
                               14.41      0.00  -3626.62

     exc-cor stress (kbar)  -2820.15     -0.00      0.07
                               -0.00  -2820.13      0.00
                                0.07      0.00  -2816.82

     corecor stress (kbar)  -1878.63      0.00      0.10
                                0.00  -1878.70     -0.00
                                0.10     -0.00  -1880.40

     ewald   stress (kbar)  -4345.00     -0.00     32.67
                               -0.00  -4470.23     -0.00
                               32.67     -0.00 -27920.32

     hubbard stress (kbar)      0.00      0.00      0.00
                                0.00      0.00      0.00
                                0.00      0.00      0.00

     DFT-D   stress (kbar)    -31.80      0.00      0.23
                                0.00    -31.76     -0.00
                                0.23     -0.00    -30.69

     XDM     stress (kbar)      0.00      0.00      0.00
                                0.00      0.00      0.00
                                0.00      0.00      0.00

     dft-nl  stress (kbar)      0.00      0.00      0.00
                                0.00      0.00      0.00
                                0.00      0.00      0.00

     TS-vdW  stress (kbar)      0.00      0.00      0.00
                                0.00      0.00      0.00
                                0.00      0.00      0.00

     MDB     stress (kbar)      0.00      0.00      0.00
                                0.00      0.00      0.00
                                0.00      0.00      0.00

     3D-RISM stress (kbar)      0.00      0.00      0.00
                                0.00      0.00      0.00
                                0.00      0.00      0.00

     Energy error            =      2.5E-05 Ry
     Gradient error          =      8.8E-04 Ry/Bohr

     bfgs converged in  13 scf cycles and  12 bfgs steps
     (criteria: energy <  1.0E-04 Ry, force <  1.0E-03 Ry/Bohr)

     End of BFGS Geometry Optimization

     Final energy             =   -2443.8348163291 Ry

     File ./temp/phl-fe0.bfgs deleted, as requested
Begin final coordinates

ATOMIC_POSITIONS (crystal)
K                0.0000000000        0.4963209490        0.0000000000
K                0.5000000000        0.0017788972        0.0000000000
Mg              -0.0000000000        0.0043581135        0.5000000000
Mg              -0.0000000000        0.3333789226        0.5000000000
Mg              -0.0000000000        0.6649076142        0.5000000000
Mg               0.5000000000        0.4931719212        0.5000000000
Mg               0.5000000000        0.8348603274        0.5000000000
Mg               0.5000000000        0.1721816740        0.5000000000
Si               0.0831850264        0.1649068176        0.2228627607
Si               0.9168149596        0.1649068176        0.7771372693
Si               0.9342240620        0.8342851120        0.7710696390
Si               0.0657759380        0.8342851120        0.2289303610
Si               0.5644509408        0.6665278428        0.2269310119
Si               0.4355490592        0.6665278428        0.7730689731
Al               0.4153860284        0.3309276860        0.7756520046
Al               0.5846139716        0.3309276860        0.2243479954
O                0.1272688911        0.1634583158        0.3851872477
O                0.8727310789        0.1634583158        0.6148127813
O                0.8745092647        0.8330551103        0.6100791972
O                0.1254907353        0.8330551103        0.3899208028
O                0.6253769645        0.6691941789        0.3886153562
O                0.3746230355        0.6691941789        0.6113846438
O                0.3611277099        0.3330351575        0.6036938895
O                0.6388722901        0.3330351575        0.3963061105
O                0.3440829092        0.2015202859        0.1660228709
O                0.6559170908        0.2015202859        0.8339770991
O                0.9932658875        0.9971415326        0.1677020058
O                0.0067341125        0.9971415326        0.8322979792
O                0.6814264574        0.7764526453        0.8309355329
O                0.3185735426        0.7764526453        0.1690644671
O                0.8175094321        0.7303761370        0.1679666872
O                0.1824905679        0.7303761370        0.8320333128
O                0.4944411412        0.5077808036        0.1624313441
O                0.5055588288        0.5077808036        0.8375686709
O                0.1419428703        0.2776159237        0.8405805040
O                0.8580571447        0.2776159237        0.1594194960
O                0.1301909907        0.5042418023        0.3933473964
O                0.8698090243        0.5042418023        0.6066526036
O                0.6324137881        0.9992264479        0.3968843596
O                0.3675862119        0.9992264479        0.6031156104
H                0.0986898864        0.4938103638        0.2978082946
H                0.9013101436        0.4938103638        0.7021917054
H                0.5951989047        0.0159621540        0.3020106350
H                0.4048010953        0.0159621540        0.6979893650
End final coordinates

     Writing all to output data dir ./temp/phl-fe0.save/ :
     XML data file, charge density, pseudopotentials, collected wavefunctions

     General routines

     Parallel routines

     PAW routines

   This run was terminated on:   6:51:37  16Dec2024

   JOB DONE.