     Program PWSCF v.7.3.1 starts on 16Dec2024 at 21:35: 8

     Reading input from relax.in
Warning: card  &CELL ignored
Warning: card    CELL_DOFREE     = 'IBRAV' ignored
Warning: card  / ignored

     Current dimensions of program PWSCF are:
     Max number of different atomic species (ntypx) = 10
     Max number of k-points (npk) =  40000
     Max angular momentum in pseudopotentials (lmaxx) =  4
     file Al.pbe-n-kjpaw_psl.1.0.0.UPF: wavefunction(s)  3S 3P renormalized
     file Fe.pbe-spn-kjpaw_psl.1.0.0.UPF: wavefunction(s)  3P 3D renormalized
     file H.pbe-kjpaw_psl.1.0.0.UPF: wavefunction(s)  1S renormalized
     file K.pbe-spn-kjpaw_psl.1.0.0.UPF: wavefunction(s)  3S renormalized
     file Mg.pbe-spnl-kjpaw_psl.1.0.0.UPF: wavefunction(s)  2P renormalized
     file O.pbe-n-kjpaw_psl.1.0.0.UPF: wavefunction(s)  2S 2P renormalized
     file Si.pbe-n-kjpaw_psl.1.0.0.UPF: wavefunction(s)  3S 3P renormalized

     R & G space division:  proc/nbgrp/npool/nimage =      12
     Subspace diagonalization in iterative solution of the eigenvalue problem:
     one sub-group per band group will be used

     Using Slab Decomposition

     bravais-lattice index     =          -12
     lattice parameter (alat)  =       9.9883  a.u.
     unit-cell volume          =    3285.8057 (a.u.)^3
     number of atoms/cell      =           44
     number of atomic types    =            7
     number of electrons       =       262.00
     number of Kohn-Sham states=          157
     kinetic-energy cutoff     =      60.0000  Ry
     charge density cutoff     =     480.0000  Ry
     scf convergence threshold =      1.0E-06
     mixing beta               =       0.7000
     number of iterations used =            8  plain     mixing
     energy convergence thresh.=      1.0E-04
     force convergence thresh. =      1.0E-03
     Exchange-correlation= SLA  PW   PBX  PBC
                           (   1   4   3   4   0   0   0)
     nstep                     =           50

     celldm(1)=   9.988336  celldm(2)=   1.736567  celldm(3)=   1.928182
     celldm(4)=   0.000000  celldm(5)=  -0.174018  celldm(6)=   0.000000

     crystal axes: (cart. coord. in units of alat)
               a(1) = (   1.000000   0.000000   0.000000 )
               a(2) = (   0.000000   1.736567   0.000000 )
               a(3) = (  -0.335538   0.000000   1.898763 )

     reciprocal axes: (cart. coord. in units 2 pi/alat)
               b(1) = (  1.000000 -0.000000  0.176714 )
               b(2) = (  0.000000  0.575849 -0.000000 )
               b(3) = (  0.000000  0.000000  0.526659 )

     PseudoPot. # 1 for Al read from file:
     ./../../pseudos/Al.pbe-n-kjpaw_psl.1.0.0.UPF
     MD5 check sum: 502b6b27b9c6270cab5dd1084b96fa6d
     Pseudo is Projector augmented-wave + core cor, Zval =  3.0
     Generated using &quot;atomic&quot; code by A. Dal Corso  v.6.3
     Shape of augmentation charge: PSQ
     Using radial grid of 1135 points,  6 beta functions with:
                l(1) =   0
                l(2) =   0
                l(3) =   1
                l(4) =   1
                l(5) =   2
                l(6) =   2
     Q(r) pseudized with 0 coefficients

     PseudoPot. # 2 for Fe read from file:
     ./../../pseudos/Fe.pbe-spn-kjpaw_psl.1.0.0.UPF
     MD5 check sum: fc81f059e5c5069939230b1155715ae8
     Pseudo is Projector augmented-wave + core cor, Zval = 16.0
     Generated using &quot;atomic&quot; code by A. Dal Corso  v.6.3
     Shape of augmentation charge: PSQ
     Using radial grid of 1191 points,  6 beta functions with:
                l(1) =   0
                l(2) =   0
                l(3) =   1
                l(4) =   1
                l(5) =   2
                l(6) =   2
     Q(r) pseudized with 0 coefficients

     PseudoPot. # 3 for H  read from file:
     ./../../pseudos/H.pbe-kjpaw_psl.1.0.0.UPF
     MD5 check sum: d81a744832360e4a8af0b0b5b123bc2a
     Pseudo is Projector augmented-wave, Zval =  1.0
     Generated using &quot;atomic&quot; code by A. Dal Corso  v.6.3MaX
     Shape of augmentation charge: PSQ
     Using radial grid of  929 points,  2 beta functions with:
                l(1) =   0
                l(2) =   0
     Q(r) pseudized with 0 coefficients

     PseudoPot. # 4 for K  read from file:
     ./../../pseudos/K.pbe-spn-kjpaw_psl.1.0.0.UPF
     MD5 check sum: 34cc42130a09071ebe376fd42eb21491
     Pseudo is Projector augmented-wave + core cor, Zval =  9.0
     Generated using &quot;atomic&quot; code by A. Dal Corso  v.6.2.2
     Shape of augmentation charge: PSQ
     Using radial grid of 1165 points,  6 beta functions with:
                l(1) =   0
                l(2) =   0
                l(3) =   1
                l(4) =   1
                l(5) =   2
                l(6) =   2
     Q(r) pseudized with 0 coefficients

     PseudoPot. # 5 for Mg read from file:
     ./../../pseudos/Mg.pbe-spnl-kjpaw_psl.1.0.0.UPF
     MD5 check sum: fda14e0d92a6a9a5ebed782e5a4b3067
     Pseudo is Projector augmented-wave + core cor, Zval = 10.0
     Generated using &quot;atomic&quot; code by A. Dal Corso  v.6.3
     Shape of augmentation charge: PSQ
     Using radial grid of 1129 points,  4 beta functions with:
                l(1) =   0
                l(2) =   0
                l(3) =   1
                l(4) =   1
     Q(r) pseudized with 0 coefficients

     PseudoPot. # 6 for O  read from file:
     ./../../pseudos/O.pbe-n-kjpaw_psl.1.0.0.UPF
     MD5 check sum: e99d9cef9b487d1ca56f5b95ecd0fd7a
     Pseudo is Projector augmented-wave + core cor, Zval =  6.0
     Generated using &quot;atomic&quot; code by A. Dal Corso  v.6.3
     Shape of augmentation charge: PSQ
     Using radial grid of 1095 points,  4 beta functions with:
                l(1) =   0
                l(2) =   0
                l(3) =   1
                l(4) =   1
     Q(r) pseudized with 0 coefficients

     PseudoPot. # 7 for Si read from file:
     ./../../pseudos/Si.pbe-n-kjpaw_psl.1.0.0.UPF
     MD5 check sum: c39c59da582df4a0d9f10159256ea34e
     Pseudo is Projector augmented-wave + core cor, Zval =  4.0
     Generated using &quot;atomic&quot; code by A. Dal Corso  v.6.3
     Shape of augmentation charge: PSQ
     Using radial grid of 1141 points,  6 beta functions with:
                l(1) =   0
                l(2) =   0
                l(3) =   1
                l(4) =   1
                l(5) =   2
                l(6) =   2
     Q(r) pseudized with 0 coefficients

     atomic species   valence    mass     pseudopotential
     Al                3.00    26.98154     Al( 1.00)
     Fe               16.00    55.84500     Fe( 1.00)
     H                 1.00     1.00794     H ( 1.00)
     K                 9.00    39.09830     K ( 1.00)
     Mg               10.00    24.30500     Mg( 1.00)
     O                 6.00    15.99940     O ( 1.00)
     Si                4.00    28.08550     Si( 1.00)

     Starting magnetic structure
     atomic species   magnetization
     Al              0.000
     Fe              0.300
     H               0.000
     K               0.000
     Mg              0.000
     O               0.000
     Si              0.000

      2 Sym. Ops. (no inversion) found

                                    s                        frac. trans.

      isym =  1     identity

 cryst.   s( 1) = (     1          0          0      )
                  (     0          1          0      )
                  (     0          0          1      )

 cart.    s( 1) = (  1.0000000  0.0000000  0.0000000 )
                  (  0.0000000  1.0000000  0.0000000 )
                  (  0.0000000  0.0000000  1.0000000 )

      isym =  2     180 deg rotation - cart. axis [0,1,0]

 cryst.   s( 2) = (    -1          0          0      )
                  (     0          1          0      )
                  (     0          0         -1      )

 cart.    s( 2) = ( -1.0000000  0.0000000  0.0000000 )
                  (  0.0000000  1.0000000  0.0000000 )
                  (  0.0000000  0.0000000 -1.0000000 )

     point group C_2  (2)
     there are  2 classes
     the character table:

       E     C2
A      1.00  1.00
B      1.00 -1.00

     the symmetry operations in each class and the name of the first element:

     E        1
          identity
     C2       2
          180 deg rotation - cart. axis [0,1,0]

   Cartesian axes

     site n.     atom                  positions (alat units)
         1        K      tau(   1) = (   0.0000000   0.8568223   0.0000000  )
         2        K      tau(   2) = (   0.5000000   0.0097248   0.0000000  )
         3        Mg     tau(   3) = (  -0.1677688   0.0062516   0.9493815  )
         4        Mg     tau(   4) = (  -0.1677688   0.5789715   0.9493815  )
         5        Mg     tau(   5) = (  -0.1677688   1.1532543   0.9493815  )
         6        Mg     tau(   6) = (   0.3322312   1.4489917   0.9493815  )
         7        Mg     tau(   7) = (   0.3322312   0.3011208   0.9493815  )
         8        Fe     tau(   8) = (   0.3322312   0.8644632   0.9493815  )
         9        Si     tau(   9) = (   0.0078751   0.2868809   0.4234242  )
        10        Si     tau(  10) = (   0.6565873   0.2868809   1.4753389  )
        11        Si     tau(  11) = (   0.6740999   1.4484708   1.4645160  )
        12        Si     tau(  12) = (  -0.0096375   1.4484708   0.4342471  )
        13        Si     tau(  13) = (   0.4895001   1.1563801   0.4306395  )
        14        Si     tau(  14) = (   0.1749623   1.1563801   1.4681237  )
        15        Al     tau(  15) = (   0.1565906   0.5770613   1.4724908  )
        16        Al     tau(  16) = (   0.5078718   0.5770613   0.4262723  )
        17        O      tau(  17) = (  -0.0026826   0.2835814   0.7315934  )
        18        O      tau(  18) = (   0.6671450   0.2835814   1.1671696  )
        19        O      tau(  19) = (   0.6695214   1.4455186   1.1588151  )
        20        O      tau(  20) = (  -0.0050590   1.4455186   0.7399480  )
        21        O      tau(  21) = (   0.4958430   1.1596796   0.7382391  )
        22        O      tau(  22) = (   0.1686195   1.1596796   1.1605239  )
        23        O      tau(  23) = (   0.1614037   0.5826183   1.1453339  )
        24        O      tau(  24) = (   0.5030587   0.5826183   0.7534292  )
        25        O      tau(  25) = (   0.2868665   0.3546070   0.3159542  )
        26        O      tau(  26) = (   0.3775959   0.3546070   1.5828089  )
        27        O      tau(  27) = (   0.9409297   1.7313575   0.3189922  )
        28        O      tau(  28) = (  -0.2764673   1.7313575   1.5797709  )
        29        O      tau(  29) = (   0.4011696   1.3470552   1.5767328  )
        30        O      tau(  30) = (   0.2632928   1.3470552   0.3220302  )
        31        O      tau(  31) = (   0.7619283   1.2692570   0.3201314  )
        32        O      tau(  32) = (  -0.0974659   1.2692570   1.5786317  )
        33        O      tau(  33) = (   0.4412429   0.8820025   0.3075996  )
        34        O      tau(  34) = (   0.2232195   0.8820025   1.5911635  )
        35        O      tau(  35) = (  -0.1370160   0.4799872   1.5930622  )
[...]
     atom    2 type  4   force =     0.00000000    0.00000000    0.00000000
     atom    3 type  5   force =     0.00000000    0.00000000    0.00000000
     atom    4 type  5   force =     0.00000000    0.00000000    0.00000000
     atom    5 type  5   force =     0.00000000    0.00000000    0.00000000
     atom    6 type  5   force =     0.00000000    0.00000000    0.00000000
     atom    7 type  5   force =     0.00000000    0.00000000    0.00000000
     atom    8 type  2   force =     0.00000000    0.00000000    0.00000000
     atom    9 type  7   force =     0.00000000    0.00000000    0.00000000
     atom   10 type  7   force =     0.00000000    0.00000000    0.00000000
     atom   11 type  7   force =     0.00000000    0.00000000    0.00000000
     atom   12 type  7   force =     0.00000000    0.00000000    0.00000000
     atom   13 type  7   force =     0.00000000    0.00000000    0.00000000
     atom   14 type  7   force =     0.00000000    0.00000000    0.00000000
     atom   15 type  1   force =     0.00000000    0.00000000    0.00000000
     atom   16 type  1   force =     0.00000000    0.00000000    0.00000000
     atom   17 type  6   force =     0.00000000    0.00000000    0.00000000
     atom   18 type  6   force =     0.00000000    0.00000000    0.00000000
     atom   19 type  6   force =     0.00000000    0.00000000    0.00000000
     atom   20 type  6   force =     0.00000000    0.00000000    0.00000000
     atom   21 type  6   force =     0.00000000    0.00000000    0.00000000
     atom   22 type  6   force =     0.00000000    0.00000000    0.00000000
     atom   23 type  6   force =     0.00000000    0.00000000    0.00000000
     atom   24 type  6   force =     0.00000000    0.00000000    0.00000000
     atom   25 type  6   force =     0.00000000    0.00000000    0.00000000
     atom   26 type  6   force =     0.00000000    0.00000000    0.00000000
     atom   27 type  6   force =     0.00000000    0.00000000    0.00000000
     atom   28 type  6   force =     0.00000000    0.00000000    0.00000000
     atom   29 type  6   force =     0.00000000    0.00000000    0.00000000
     atom   30 type  6   force =     0.00000000    0.00000000    0.00000000
     atom   31 type  6   force =     0.00000000    0.00000000    0.00000000
     atom   32 type  6   force =     0.00000000    0.00000000    0.00000000
     atom   33 type  6   force =     0.00000000    0.00000000    0.00000000
     atom   34 type  6   force =     0.00000000    0.00000000    0.00000000
     atom   35 type  6   force =     0.00000000    0.00000000    0.00000000
     atom   36 type  6   force =     0.00000000    0.00000000    0.00000000
     atom   37 type  6   force =     0.00000000    0.00000000    0.00000000
     atom   38 type  6   force =     0.00000000    0.00000000    0.00000000
     atom   39 type  6   force =     0.00000000    0.00000000    0.00000000
     atom   40 type  6   force =     0.00000000    0.00000000    0.00000000
     atom   41 type  3   force =     0.00000000    0.00000000    0.00000000
     atom   42 type  3   force =     0.00000000    0.00000000    0.00000000
     atom   43 type  3   force =     0.00000000    0.00000000    0.00000000
     atom   44 type  3   force =     0.00000000    0.00000000    0.00000000
     The SCF correction term to forces
     atom    1 type  4   force =     0.00000000   -0.00000464    0.00000000
     atom    2 type  4   force =     0.00000000    0.00000519   -0.00000000
     atom    3 type  5   force =     0.00000000   -0.00000019    0.00000000
     atom    4 type  5   force =    -0.00000000    0.00001249    0.00000000
     atom    5 type  5   force =     0.00000000    0.00001383    0.00000000
     atom    6 type  5   force =    -0.00000000   -0.00000437    0.00000000
     atom    7 type  5   force =    -0.00000000    0.00002008    0.00000000
     atom    8 type  2   force =    -0.00000000   -0.00000761    0.00000000
     atom    9 type  7   force =    -0.00000124    0.00000741   -0.00001234
     atom   10 type  7   force =     0.00000124    0.00000741    0.00001234
     atom   11 type  7   force =     0.00000269   -0.00000461    0.00000252
     atom   12 type  7   force =    -0.00000269   -0.00000461   -0.00000252
     atom   13 type  7   force =     0.00000343   -0.00000426   -0.00000101
     atom   14 type  7   force =    -0.00000343   -0.00000426    0.00000101
     atom   15 type  1   force =    -0.00000089    0.00000089    0.00000619
     atom   16 type  1   force =     0.00000089    0.00000089   -0.00000619
     atom   17 type  6   force =     0.00000179    0.00000140    0.00000001
     atom   18 type  6   force =    -0.00000179    0.00000140   -0.00000001
     atom   19 type  6   force =    -0.00000077   -0.00001516    0.00000497
     atom   20 type  6   force =     0.00000077   -0.00001516   -0.00000497
     atom   21 type  6   force =     0.00000351    0.00000415   -0.00000826
     atom   22 type  6   force =    -0.00000351    0.00000415    0.00000826
     atom   23 type  6   force =    -0.00000502    0.00000788   -0.00000120
     atom   24 type  6   force =     0.00000502    0.00000788    0.00000120
     atom   25 type  6   force =    -0.00001743    0.00003897   -0.00002072
     atom   26 type  6   force =     0.00001743    0.00003897    0.00002072
     atom   27 type  6   force =    -0.00000127    0.00000168   -0.00001415
     atom   28 type  6   force =     0.00000127    0.00000168    0.00001415
     atom   29 type  6   force =     0.00000000    0.00000675    0.00000304
     atom   30 type  6   force =    -0.00000000    0.00000675   -0.00000304
     atom   31 type  6   force =     0.00000354   -0.00000799    0.00000940
     atom   32 type  6   force =    -0.00000354   -0.00000799   -0.00000940
     atom   33 type  6   force =     0.00000077   -0.00000456   -0.00000675
     atom   34 type  6   force =    -0.00000077   -0.00000456    0.00000675
     atom   35 type  6   force =     0.00003559   -0.00001289    0.00002118
     atom   36 type  6   force =    -0.00003559   -0.00001289   -0.00002118
     atom   37 type  6   force =     0.00000159    0.00000021   -0.00000893
     atom   38 type  6   force =    -0.00000159    0.00000021    0.00000893
     atom   39 type  6   force =    -0.00000638   -0.00001205   -0.00000105
     atom   40 type  6   force =     0.00000638   -0.00001205    0.00000105
     atom   41 type  3   force =     0.00000008    0.00000047    0.00000036
     atom   42 type  3   force =    -0.00000008    0.00000047   -0.00000036
     atom   43 type  3   force =    -0.00000012   -0.00000070   -0.00000252
     atom   44 type  3   force =     0.00000012   -0.00000070    0.00000252

     Dispersion contribution to forces:
     atom    1 type  4   force =    -0.00000000    0.00223176    0.00000000
     atom    2 type  4   force =     0.00000000   -0.00156642    0.00000000
     atom    3 type  5   force =    -0.00000000    0.00044135    0.00000000
     atom    4 type  5   force =    -0.00000000   -0.00232627    0.00000000
     atom    5 type  5   force =     0.00000000    0.00097856    0.00000000
     atom    6 type  5   force =    -0.00000000    0.00255168    0.00000000
     atom    7 type  5   force =     0.00000000   -0.00406849    0.00000000
     atom    8 type  2   force =    -0.00000000    0.00313868    0.00000000
     atom    9 type  7   force =    -0.00012281   -0.00044749    0.00144502
     atom   10 type  7   force =     0.00012281   -0.00044749   -0.00144502
     atom   11 type  7   force =    -0.00013920    0.00015206   -0.00081819
     atom   12 type  7   force =     0.00013920    0.00015206    0.00081819
     atom   13 type  7   force =     0.00047846    0.00156811   -0.00051937
     atom   14 type  7   force =    -0.00047846    0.00156811    0.00051936
     atom   15 type  1   force =    -0.00074852   -0.00148473   -0.00133996
     atom   16 type  1   force =     0.00074852   -0.00148473    0.00133996
     atom   17 type  6   force =    -0.00015206    0.00018755    0.00041951
     atom   18 type  6   force =     0.00015206    0.00018755   -0.00041951
     atom   19 type  6   force =     0.00011140   -0.00016643   -0.00029311
     atom   20 type  6   force =    -0.00011140   -0.00016643    0.00029311
     atom   21 type  6   force =    -0.00017444   -0.00017005    0.00064971
     atom   22 type  6   force =     0.00017444   -0.00017005   -0.00064971
     atom   23 type  6   force =    -0.00015191   -0.00008589    0.00091071
     atom   24 type  6   force =     0.00015191   -0.00008589   -0.00091071
     atom   25 type  6   force =     0.00033349    0.00192456    0.00142536
     atom   26 type  6   force =    -0.00033349    0.00192456   -0.00142536
     atom   27 type  6   force =     0.00033431    0.00014121    0.00063081
     atom   28 type  6   force =    -0.00033431    0.00014121   -0.00063081
     atom   29 type  6   force =     0.00004414   -0.00000919   -0.00015556
     atom   30 type  6   force =    -0.00004414   -0.00000919    0.00015556
     atom   31 type  6   force =     0.00015027   -0.00022879   -0.00016385
     atom   32 type  6   force =    -0.00015027   -0.00022879    0.00016385
     atom   33 type  6   force =     0.00084490   -0.00151016    0.00125439
     atom   34 type  6   force =    -0.00084490   -0.00151016   -0.00125439
     atom   35 type  6   force =     0.00153187   -0.00038494   -0.00127729
     atom   36 type  6   force =    -0.00153187   -0.00038494    0.00127729
     atom   37 type  6   force =     0.00007616    0.00011283   -0.00215508
     atom   38 type  6   force =    -0.00007616    0.00011283    0.00215508
     atom   39 type  6   force =     0.00015558    0.00012068   -0.00245569
     atom   40 type  6   force =    -0.00015558    0.00012068    0.00245569
     atom   41 type  3   force =    -0.00075652   -0.00015778   -0.00015714
     atom   42 type  3   force =     0.00075652   -0.00015778    0.00015714
     atom   43 type  3   force =     0.00039688   -0.00025198    0.00086677
     atom   44 type  3   force =    -0.00039688   -0.00025198   -0.00086677

     Total force =     0.003374     Total SCF correction =     0.000110

     Total Dispersion Force =     0.011244

     Computing stress (Cartesian axis) and pressure

     negative rho (up, down):  0.000E+00 2.090E-04
          total   stress  (Ry/bohr**3)                   (kbar)     P=        7.39
   0.00006397   0.00000000  -0.00000448            9.41        0.00       -0.66
   0.00000000   0.00007558   0.00000000            0.00       11.12        0.00
  -0.00000448   0.00000000   0.00001120           -0.66        0.00        1.65

     kinetic stress (kbar)  20973.34      0.00     15.50
                                0.00  20881.61      0.00
                               15.50      0.00  20705.69

     local   stress (kbar) -38602.61     -0.00    149.26
                               -0.00 -38477.80      0.00
                              149.26      0.00  17357.06

     nonloc. stress (kbar)   3947.16      0.00      0.45
                                0.00   3949.95      0.00
                                0.45      0.00   3928.01

     hartree stress (kbar)  22068.75     -0.00    -56.99
                               -0.00  22009.74      0.00
                              -56.99      0.00  -5297.84

     exc-cor stress (kbar)  -2937.29     -0.00     -0.03
                               -0.00  -2937.64      0.00
                               -0.03      0.00  -2933.83

     corecor stress (kbar)  -1932.71      0.00     -0.07
                                0.00  -1932.16     -0.00
                               -0.07     -0.00  -1934.52

     ewald   stress (kbar)  -3477.04      0.00   -108.59
                                0.00  -3452.51     -0.00
                             -108.59     -0.00 -31793.23

     hubbard stress (kbar)      0.00      0.00      0.00
                                0.00      0.00      0.00
                                0.00      0.00      0.00

     DFT-D   stress (kbar)    -30.19      0.00     -0.19
                                0.00    -30.07     -0.00
                               -0.19     -0.00    -29.68

     XDM     stress (kbar)      0.00      0.00      0.00
                                0.00      0.00      0.00
                                0.00      0.00      0.00

     dft-nl  stress (kbar)      0.00      0.00      0.00
                                0.00      0.00      0.00
                                0.00      0.00      0.00

     TS-vdW  stress (kbar)      0.00      0.00      0.00
                                0.00      0.00      0.00
                                0.00      0.00      0.00

     MDB     stress (kbar)      0.00      0.00      0.00
                                0.00      0.00      0.00
                                0.00      0.00      0.00

     3D-RISM stress (kbar)      0.00      0.00      0.00
                                0.00      0.00      0.00
                                0.00      0.00      0.00

     Energy error            =      2.2E-05 Ry
     Gradient error          =      8.8E-04 Ry/Bohr

     bfgs converged in  17 scf cycles and  16 bfgs steps
     (criteria: energy <  1.0E-04 Ry, force <  1.0E-03 Ry/Bohr)

     End of BFGS Geometry Optimization

     Final energy             =   -2631.3894281189 Ry

     File ./temp/phl-fe1.bfgs deleted, as requested
Begin final coordinates

ATOMIC_POSITIONS (crystal)
K                0.0000000000        0.4979186871        0.0000000000
K                0.5000000000        0.0009006515        0.0000000000
Mg               0.0000000000        0.0033754692        0.5000000000
Mg               0.0000000000        0.3313628385        0.5000000000
Mg               0.0000000000        0.6658802985        0.5000000000
Mg               0.5000000000        0.8357729074        0.5000000000
Mg               0.5000000000        0.1681941257        0.5000000000
Fe               0.5000000000        0.4924963008        0.5000000000
Si               0.0836369233        0.1649526293        0.2217311170
Si               0.9163630617        0.1649526293        0.7782688980
Si               0.9332791112        0.8345134845        0.7724005473
Si               0.0667208888        0.8345134845        0.2275994527
Si               0.5660129931        0.6677081211        0.2259172158
Si               0.4339870069        0.6677081211        0.7740828142
Al               0.4148106665        0.3309519966        0.7762949046
Al               0.5851893035        0.3309519966        0.2237050954
O                0.1276550537        0.1623018339        0.3842021592
O                0.8723449163        0.1623018339        0.6157978108
O                0.8737013420        0.8333443850        0.6112735508
O                0.1262986580        0.8333443850        0.3887264492
O                0.6287845766        0.6744746792        0.3875601377
O                0.3712154234        0.6744746792        0.6124398323
O                0.3593033850        0.3279157530        0.6036280455
O                0.6406966150        0.3279157530        0.3963719545
O                0.3455581723        0.2013021383        0.1648226866
O                0.6544418277        0.2013021383        0.8351772984
O                0.9929736971        0.9973285715        0.1661554036
O                0.0070263029        0.9973285715        0.8338446114
O                0.6794686193        0.7776059334        0.8326809009
O                0.3205313807        0.7776059334        0.1673190991
O                0.8196339537        0.7299026426        0.1656945794
O                0.1803660463        0.7299026426        0.8343054506
O                0.4936001615        0.5080923295        0.1634353718
O                0.5063998385        0.5080923295        0.8365646282
O                0.1406008872        0.2784500707        0.8414896032
O                0.8593990978        0.2784500707        0.1585103968
O                0.1191262891        0.5033845736        0.3912538595
O                0.8808736809        0.5033845736        0.6087461105
O                0.6336253153        0.9990047385        0.3966741824
O                0.3663746847        0.9990047385        0.6033258176
H                0.1047973747        0.4946016678        0.2957641776
H                0.8952026173        0.4946016678        0.7042358224
H                0.5969876629        0.0162637894        0.3018019759
H                0.4030123371        0.0162637894        0.6981979941
End final coordinates

     Writing all to output data dir ./temp/phl-fe1.save/ :
     XML data file, charge density, pseudopotentials, collected wavefunctions

     General routines

     Parallel routines

     PAW routines

   This run was terminated on:  14:38:36  18Dec2024

   JOB DONE.