     Program PWSCF v.7.3.1 starts on 13Jan2025 at  7: 0:18

     Reading input from relax.in
Warning: card  &CELL ignored
Warning: card    CELL_DOFREE     = 'IBRAV' ignored
Warning: card  / ignored

     Current dimensions of program PWSCF are:
     Max number of different atomic species (ntypx) = 10
     Max number of k-points (npk) =  40000
     Max angular momentum in pseudopotentials (lmaxx) =  4
     file Al.pbe-n-kjpaw_psl.1.0.0.UPF: wavefunction(s)  3S 3P renormalized
     file Fe.pbe-spn-kjpaw_psl.1.0.0.UPF: wavefunction(s)  3P 3D renormalized
     file H.pbe-kjpaw_psl.1.0.0.UPF: wavefunction(s)  1S renormalized
     file K.pbe-spn-kjpaw_psl.1.0.0.UPF: wavefunction(s)  3S renormalized
     file Mg.pbe-spnl-kjpaw_psl.1.0.0.UPF: wavefunction(s)  2P renormalized
     file O.pbe-n-kjpaw_psl.1.0.0.UPF: wavefunction(s)  2S 2P renormalized
     file Si.pbe-n-kjpaw_psl.1.0.0.UPF: wavefunction(s)  3S 3P renormalized

     R & G space division:  proc/nbgrp/npool/nimage =       6
     Subspace diagonalization in iterative solution of the eigenvalue problem:
     one sub-group per band group will be used

     Using Slab Decomposition

     bravais-lattice index     =          -12
     lattice parameter (alat)  =      10.0136  a.u.
     unit-cell volume          =    3303.4414 (a.u.)^3
     number of atoms/cell      =           44
     number of atomic types    =            7
     number of electrons       =       262.00
     number of Kohn-Sham states=          157
     kinetic-energy cutoff     =      60.0000  Ry
     charge density cutoff     =     480.0000  Ry
     scf convergence threshold =      1.0E-06
     mixing beta               =       0.7000
     number of iterations used =            8  plain     mixing
     energy convergence thresh.=      1.0E-04
     force convergence thresh. =      1.0E-03
     Exchange-correlation= SLA  PW   PBX  PBC
                           (   1   4   3   4   0   0   0)
     nstep                     =           50

     celldm(1)=  10.013640  celldm(2)=   1.735306  celldm(3)=   1.926511
     celldm(4)=   0.000000  celldm(5)=  -0.177565  celldm(6)=   0.000000

     crystal axes: (cart. coord. in units of alat)
               a(1) = (   1.000000   0.000000   0.000000 )
               a(2) = (   0.000000   1.735306   0.000000 )
               a(3) = (  -0.342081   0.000000   1.895896 )

     reciprocal axes: (cart. coord. in units 2 pi/alat)
               b(1) = (  1.000000 -0.000000  0.180432 )
               b(2) = (  0.000000  0.576267 -0.000000 )
               b(3) = (  0.000000  0.000000  0.527455 )

     PseudoPot. # 1 for Al read from file:
     ./../../../pseudos/Al.pbe-n-kjpaw_psl.1.0.0.UPF
     MD5 check sum: 502b6b27b9c6270cab5dd1084b96fa6d
     Pseudo is Projector augmented-wave + core cor, Zval =  3.0
     Generated using &quot;atomic&quot; code by A. Dal Corso  v.6.3
     Shape of augmentation charge: PSQ
     Using radial grid of 1135 points,  6 beta functions with:
                l(1) =   0
                l(2) =   0
                l(3) =   1
                l(4) =   1
                l(5) =   2
                l(6) =   2
     Q(r) pseudized with 0 coefficients

     PseudoPot. # 2 for Fe read from file:
     ./../../../pseudos/Fe.pbe-spn-kjpaw_psl.1.0.0.UPF
     MD5 check sum: fc81f059e5c5069939230b1155715ae8
     Pseudo is Projector augmented-wave + core cor, Zval = 16.0
     Generated using &quot;atomic&quot; code by A. Dal Corso  v.6.3
     Shape of augmentation charge: PSQ
     Using radial grid of 1191 points,  6 beta functions with:
                l(1) =   0
                l(2) =   0
                l(3) =   1
                l(4) =   1
                l(5) =   2
                l(6) =   2
     Q(r) pseudized with 0 coefficients

     PseudoPot. # 3 for H  read from file:
     ./../../../pseudos/H.pbe-kjpaw_psl.1.0.0.UPF
     MD5 check sum: d81a744832360e4a8af0b0b5b123bc2a
     Pseudo is Projector augmented-wave, Zval =  1.0
     Generated using &quot;atomic&quot; code by A. Dal Corso  v.6.3MaX
     Shape of augmentation charge: PSQ
     Using radial grid of  929 points,  2 beta functions with:
                l(1) =   0
                l(2) =   0
     Q(r) pseudized with 0 coefficients

     PseudoPot. # 4 for K  read from file:
     ./../../../pseudos/K.pbe-spn-kjpaw_psl.1.0.0.UPF
     MD5 check sum: 34cc42130a09071ebe376fd42eb21491
     Pseudo is Projector augmented-wave + core cor, Zval =  9.0
     Generated using &quot;atomic&quot; code by A. Dal Corso  v.6.2.2
     Shape of augmentation charge: PSQ
     Using radial grid of 1165 points,  6 beta functions with:
                l(1) =   0
                l(2) =   0
                l(3) =   1
                l(4) =   1
                l(5) =   2
                l(6) =   2
     Q(r) pseudized with 0 coefficients

     PseudoPot. # 5 for Mg read from file:
     ./../../../pseudos/Mg.pbe-spnl-kjpaw_psl.1.0.0.UPF
     MD5 check sum: fda14e0d92a6a9a5ebed782e5a4b3067
     Pseudo is Projector augmented-wave + core cor, Zval = 10.0
     Generated using &quot;atomic&quot; code by A. Dal Corso  v.6.3
     Shape of augmentation charge: PSQ
     Using radial grid of 1129 points,  4 beta functions with:
                l(1) =   0
                l(2) =   0
                l(3) =   1
                l(4) =   1
     Q(r) pseudized with 0 coefficients

     PseudoPot. # 6 for O  read from file:
     ./../../../pseudos/O.pbe-n-kjpaw_psl.1.0.0.UPF
     MD5 check sum: e99d9cef9b487d1ca56f5b95ecd0fd7a
     Pseudo is Projector augmented-wave + core cor, Zval =  6.0
     Generated using &quot;atomic&quot; code by A. Dal Corso  v.6.3
     Shape of augmentation charge: PSQ
     Using radial grid of 1095 points,  4 beta functions with:
                l(1) =   0
                l(2) =   0
                l(3) =   1
                l(4) =   1
     Q(r) pseudized with 0 coefficients

     PseudoPot. # 7 for Si read from file:
     ./../../../pseudos/Si.pbe-n-kjpaw_psl.1.0.0.UPF
     MD5 check sum: c39c59da582df4a0d9f10159256ea34e
     Pseudo is Projector augmented-wave + core cor, Zval =  4.0
     Generated using &quot;atomic&quot; code by A. Dal Corso  v.6.3
     Shape of augmentation charge: PSQ
     Using radial grid of 1141 points,  6 beta functions with:
                l(1) =   0
                l(2) =   0
                l(3) =   1
                l(4) =   1
                l(5) =   2
                l(6) =   2
     Q(r) pseudized with 0 coefficients

     atomic species   valence    mass     pseudopotential
     Al                3.00    26.98154     Al( 1.00)
     Fe               16.00    55.84500     Fe( 1.00)
     H                 1.00     1.00794     H ( 1.00)
     K                 9.00    39.09830     K ( 1.00)
     Mg               10.00    24.30500     Mg( 1.00)
     O                 6.00    15.99940     O ( 1.00)
     Si                4.00    28.08550     Si( 1.00)

     Starting magnetic structure
     atomic species   magnetization
     Al              0.000
     Fe              0.300
     H               0.000
     K               0.000
     Mg              0.000
     O               0.000
     Si              0.000

      2 Sym. Ops. (no inversion) found

                                    s                        frac. trans.

      isym =  1     identity

 cryst.   s( 1) = (     1          0          0      )
                  (     0          1          0      )
                  (     0          0          1      )

 cart.    s( 1) = (  1.0000000  0.0000000 -0.0000000 )
                  (  0.0000000  1.0000000  0.0000000 )
                  (  0.0000000  0.0000000  1.0000000 )

      isym =  2     180 deg rotation - cart. axis [0,1,0]

 cryst.   s( 2) = (    -1          0          0      )
                  (     0          1          0      )
                  (     0          0         -1      )

 cart.    s( 2) = ( -1.0000000  0.0000000  0.0000000 )
                  (  0.0000000  1.0000000  0.0000000 )
                  (  0.0000000  0.0000000 -1.0000000 )

     point group C_2  (2)
     there are  2 classes
     the character table:

       E     C2
A      1.00  1.00
B      1.00 -1.00

     the symmetry operations in each class and the name of the first element:

     E        1
          identity
     C2       2
          180 deg rotation - cart. axis [0,1,0]

   Cartesian axes

     site n.     atom                  positions (alat units)
         1        K      tau(   1) = (   0.0000000   0.8559224   0.0000000  )
         2        K      tau(   2) = (   0.5000000   0.0093568   0.0000000  )
         3        Mg     tau(   3) = (  -0.1710407   0.0067712   0.9479482  )
         4        Mg     tau(   4) = (  -0.1710407   0.5780843   0.9479482  )
         5        Mg     tau(   5) = (  -0.1710407   1.1543881   0.9479482  )
         6        Mg     tau(   6) = (   0.3289593   0.8562226   0.9479482  )
         7        Mg     tau(   7) = (   0.3289593   0.2986375   0.9479482  )
         8        Si     tau(   8) = (   0.0066674   0.2865251   0.4219393  )
         9        Si     tau(   9) = (   0.6512512   0.2865251   1.4739571  )
        10        Si     tau(  10) = (   0.6701371   1.4476688   1.4628623  )
        11        Si     tau(  11) = (  -0.0122184   1.4476688   0.4330341  )
        12        Si     tau(  12) = (   0.4872056   1.1568454   0.4292651  )
        13        Si     tau(  13) = (   0.1707131   1.1568454   1.4666313  )
        14        Al     tau(  14) = (   0.1506005   0.5746762   1.4713786  )
        15        Al     tau(  15) = (   0.5073182   0.5746762   0.4245178  )
        16        O      tau(  16) = (  -0.0043508   0.2833738   0.7297400  )
        17        O      tau(  17) = (   0.6622695   0.2833738   1.1661564  )
        18        O      tau(  18) = (   0.6658139   1.4451231   1.1576912  )
        19        O      tau(  19) = (  -0.0078952   1.4451231   0.7382052  )
        20        O      tau(  20) = (   0.4926234   1.1618863   0.7357690  )
        21        O      tau(  21) = (   0.1652953   1.1618863   1.1601274  )
        22        O      tau(  22) = (   0.1548298   0.5779784   1.1454267  )
        23        O      tau(  23) = (   0.5030889   0.5779784   0.7504697  )
        24        O      tau(  24) = (   0.2847398   0.3548857   0.3143567  )
        25        O      tau(  25) = (   0.3731789   0.3548857   1.5815397  )
        26        O      tau(  26) = (   0.9404978   1.7303189   0.3181314  )
        27        O      tau(  27) = (  -0.2825791   1.7303189   1.5777650  )
        28        O      tau(  28) = (   0.3988927   1.3439356   1.5754330  )
        29        O      tau(  29) = (   0.2590260   1.3439356   0.3204634  )
        30        O      tau(  30) = (   0.7582660   1.2710892   0.3185125  )
        31        O      tau(  31) = (  -0.1003473   1.2710892   1.5773839  )
        32        O      tau(  32) = (   0.4432368   0.8811364   0.3085875  )
        33        O      tau(  33) = (   0.2146819   0.8811364   1.5873090  )
        34        O      tau(  34) = (  -0.1423236   0.4782556   1.5925436  )
        35        O      tau(  35) = (   0.8002423   0.4782556   0.3033529  )
[...]
     atom   10 type  7   force =     0.00112180    0.00344756   -0.01441773
     atom   11 type  7   force =    -0.00112180    0.00344756    0.01441773
     atom   12 type  7   force =    -0.00134100   -0.01245681    0.00981580
     atom   13 type  7   force =     0.00134100   -0.01245681   -0.00981584
     atom   14 type  1   force =    -0.00056104   -0.00206182   -0.01034694
     atom   15 type  1   force =     0.00056104   -0.00206182    0.01034694
     atom   16 type  6   force =    -0.00014754    0.00018928    0.00644533
     atom   17 type  6   force =     0.00014752    0.00018928   -0.00644533
     atom   18 type  6   force =     0.00095439    0.00000907   -0.00685299
     atom   19 type  6   force =    -0.00095439    0.00000907    0.00685299
     atom   20 type  6   force =     0.00068866   -0.00111988    0.00650796
     atom   21 type  6   force =    -0.00068866   -0.00111988   -0.00650796
     atom   22 type  6   force =     0.00003886    0.00014212   -0.00312403
     atom   23 type  6   force =    -0.00003886    0.00014212    0.00312403
     atom   24 type  6   force =     0.00470174   -0.00200128   -0.00578204
     atom   25 type  6   force =    -0.00470175   -0.00200128    0.00578201
     atom   26 type  6   force =    -0.00357243    0.00089784   -0.00716061
     atom   27 type  6   force =     0.00357244    0.00089784    0.00716059
     atom   28 type  6   force =    -0.00174988    0.00250195    0.00715158
     atom   29 type  6   force =     0.00174988    0.00250195   -0.00715158
     atom   30 type  6   force =     0.00094832   -0.00225280   -0.00760001
     atom   31 type  6   force =    -0.00094832   -0.00225280    0.00760001
     atom   32 type  6   force =    -0.00266722   -0.00354190   -0.00657214
     atom   33 type  6   force =     0.00266720   -0.00354190    0.00657215
     atom   34 type  6   force =     0.00095705    0.00435829    0.00647399
     atom   35 type  6   force =    -0.00095705    0.00435830   -0.00647399
     atom   36 type  6   force =     0.00008170    0.00091898    0.01126297
     atom   37 type  6   force =    -0.00008169    0.00091898   -0.01126297
     atom   38 type  6   force =     0.00168293    0.00032087    0.01073825
     atom   39 type  6   force =    -0.00168292    0.00032088   -0.01073823
     atom   40 type  3   force =     0.00000000    0.00000000    0.00000000
     atom   41 type  3   force =     0.00000000    0.00000000    0.00000000
     atom   42 type  3   force =     0.00000000    0.00000000    0.00000000
     atom   43 type  3   force =     0.00000000    0.00000000    0.00000000
     atom   44 type  2   force =    -0.00000000    0.00386513    0.00000000
     The Hubbard contrib.    to forces
     atom    1 type  4   force =     0.00000000    0.00000000    0.00000000
     atom    2 type  4   force =     0.00000000    0.00000000    0.00000000
     atom    3 type  5   force =     0.00000000    0.00000000    0.00000000
     atom    4 type  5   force =     0.00000000    0.00000000    0.00000000
     atom    5 type  5   force =     0.00000000    0.00000000    0.00000000
     atom    6 type  5   force =     0.00000000    0.00000000    0.00000000
     atom    7 type  5   force =     0.00000000    0.00000000    0.00000000
     atom    8 type  7   force =     0.00000000    0.00000000    0.00000000
     atom    9 type  7   force =     0.00000000    0.00000000    0.00000000
     atom   10 type  7   force =     0.00000000    0.00000000    0.00000000
     atom   11 type  7   force =     0.00000000    0.00000000    0.00000000
     atom   12 type  7   force =     0.00000000    0.00000000    0.00000000
     atom   13 type  7   force =     0.00000000    0.00000000    0.00000000
     atom   14 type  1   force =     0.00000000    0.00000000    0.00000000
     atom   15 type  1   force =     0.00000000    0.00000000    0.00000000
     atom   16 type  6   force =     0.00000000    0.00000000    0.00000000
     atom   17 type  6   force =     0.00000000    0.00000000    0.00000000
     atom   18 type  6   force =     0.00000000    0.00000000    0.00000000
     atom   19 type  6   force =     0.00000000    0.00000000    0.00000000
     atom   20 type  6   force =     0.00000000    0.00000000    0.00000000
     atom   21 type  6   force =     0.00000000    0.00000000    0.00000000
     atom   22 type  6   force =     0.00000000    0.00000000    0.00000000
     atom   23 type  6   force =     0.00000000    0.00000000    0.00000000
     atom   24 type  6   force =     0.00000000    0.00000000    0.00000000
     atom   25 type  6   force =     0.00000000    0.00000000    0.00000000
     atom   26 type  6   force =     0.00000000    0.00000000    0.00000000
     atom   27 type  6   force =     0.00000000    0.00000000    0.00000000
     atom   28 type  6   force =     0.00000000    0.00000000    0.00000000
     atom   29 type  6   force =     0.00000000    0.00000000    0.00000000
     atom   30 type  6   force =     0.00000000    0.00000000    0.00000000
     atom   31 type  6   force =     0.00000000    0.00000000    0.00000000
     atom   32 type  6   force =     0.00000000    0.00000000    0.00000000
     atom   33 type  6   force =     0.00000000    0.00000000    0.00000000
     atom   34 type  6   force =     0.00000000    0.00000000    0.00000000
     atom   35 type  6   force =     0.00000000    0.00000000    0.00000000
     atom   36 type  6   force =     0.00000000    0.00000000    0.00000000
     atom   37 type  6   force =     0.00000000    0.00000000    0.00000000
     atom   38 type  6   force =     0.00000000    0.00000000    0.00000000
     atom   39 type  6   force =     0.00000000    0.00000000    0.00000000
     atom   40 type  3   force =     0.00000000    0.00000000    0.00000000
     atom   41 type  3   force =     0.00000000    0.00000000    0.00000000
     atom   42 type  3   force =     0.00000000    0.00000000    0.00000000
     atom   43 type  3   force =     0.00000000    0.00000000    0.00000000
     atom   44 type  2   force =     0.00000000    0.00000000    0.00000000
     The SCF correction term to forces
     atom    1 type  4   force =     0.00000000    0.00000843   -0.00000000
     atom    2 type  4   force =     0.00000000    0.00000187   -0.00000000
     atom    3 type  5   force =     0.00000000   -0.00001148   -0.00000000
     atom    4 type  5   force =    -0.00000000    0.00000544   -0.00000000
     atom    5 type  5   force =    -0.00000000    0.00002114   -0.00000000
     atom    6 type  5   force =     0.00000000    0.00001092   -0.00000000
     atom    7 type  5   force =    -0.00000000   -0.00003883   -0.00000000
     atom    8 type  7   force =    -0.00000211   -0.00000152   -0.00000080
     atom    9 type  7   force =     0.00000211   -0.00000152    0.00000080
     atom   10 type  7   force =     0.00000190    0.00000278   -0.00000591
     atom   11 type  7   force =    -0.00000190    0.00000278    0.00000591
     atom   12 type  7   force =     0.00000409    0.00000065    0.00000502
     atom   13 type  7   force =    -0.00000409    0.00000065   -0.00000502
     atom   14 type  1   force =     0.00000007   -0.00000093    0.00000135
     atom   15 type  1   force =    -0.00000007   -0.00000093   -0.00000135
     atom   16 type  6   force =     0.00000004   -0.00000906   -0.00000103
     atom   17 type  6   force =    -0.00000004   -0.00000906    0.00000103
     atom   18 type  6   force =     0.00001231    0.00000249   -0.00000076
     atom   19 type  6   force =    -0.00001231    0.00000249    0.00000076
     atom   20 type  6   force =     0.00000501    0.00000064    0.00000402
     atom   21 type  6   force =    -0.00000501    0.00000064   -0.00000402
     atom   22 type  6   force =     0.00000588    0.00001999    0.00003343
     atom   23 type  6   force =    -0.00000588    0.00001999   -0.00003343
     atom   24 type  6   force =     0.00000946    0.00002355   -0.00001557
     atom   25 type  6   force =    -0.00000946    0.00002355    0.00001557
     atom   26 type  6   force =     0.00000634   -0.00000382    0.00000930
     atom   27 type  6   force =    -0.00000634   -0.00000382   -0.00000930
     atom   28 type  6   force =    -0.00002590    0.00002820   -0.00001096
     atom   29 type  6   force =     0.00002590    0.00002820    0.00001096
     atom   30 type  6   force =     0.00000774   -0.00000518    0.00000785
     atom   31 type  6   force =    -0.00000774   -0.00000518   -0.00000785
     atom   32 type  6   force =     0.00001801   -0.00000197    0.00000316
     atom   33 type  6   force =    -0.00001801   -0.00000197   -0.00000316
     atom   34 type  6   force =     0.00002268   -0.00003287    0.00000732
     atom   35 type  6   force =    -0.00002268   -0.00003287   -0.00000732
     atom   36 type  6   force =    -0.00000318    0.00000354   -0.00000871
     atom   37 type  6   force =     0.00000318    0.00000354    0.00000871
     atom   38 type  6   force =    -0.00000345   -0.00000367    0.00001148
     atom   39 type  6   force =     0.00000345   -0.00000367   -0.00001148
     atom   40 type  3   force =    -0.00000042    0.00000056    0.00000031
     atom   41 type  3   force =     0.00000042    0.00000056   -0.00000031
     atom   42 type  3   force =     0.00000017   -0.00000092    0.00000078
     atom   43 type  3   force =    -0.00000017   -0.00000092   -0.00000078
     atom   44 type  2   force =    -0.00000000    0.00000775   -0.00000000

     DFT-D3 dispersion contribution to forces:
     atom    1 type  4   force =    -0.00000000    0.00046373    0.00000000
     atom    2 type  4   force =     0.00000000   -0.00014747    0.00000000
     atom    3 type  5   force =     0.00000000    0.00025370   -0.00000000
     atom    4 type  5   force =     0.00000000    0.00072767   -0.00000000
     atom    5 type  5   force =    -0.00000000   -0.00110101   -0.00000000
     atom    6 type  5   force =     0.00000000   -0.00056934    0.00000000
     atom    7 type  5   force =     0.00000000   -0.00010512   -0.00000000
     atom    8 type  7   force =    -0.00000114    0.00000470   -0.00039499
     atom    9 type  7   force =     0.00000114    0.00000470    0.00039499
     atom   10 type  7   force =    -0.00006452    0.00004991    0.00018114
     atom   11 type  7   force =     0.00006452    0.00004991   -0.00018114
     atom   12 type  7   force =    -0.00016302    0.00020909   -0.00011562
     atom   13 type  7   force =     0.00016302    0.00020909    0.00011562
     atom   14 type  1   force =     0.00001037    0.00003628   -0.00102112
     atom   15 type  1   force =    -0.00001037    0.00003628    0.00102112
     atom   16 type  6   force =    -0.00003374    0.00008487    0.00040993
     atom   17 type  6   force =     0.00003374    0.00008487   -0.00040993
     atom   18 type  6   force =    -0.00012293    0.00000990   -0.00035929
     atom   19 type  6   force =     0.00012293    0.00000990    0.00035928
     atom   20 type  6   force =    -0.00005164   -0.00001240    0.00040305
     atom   21 type  6   force =     0.00005164   -0.00001240   -0.00040305
     atom   22 type  6   force =    -0.00001568   -0.00003109    0.00009227
     atom   23 type  6   force =     0.00001568   -0.00003109   -0.00009227
     atom   24 type  6   force =    -0.00018042    0.00103459    0.00009966
     atom   25 type  6   force =     0.00018042    0.00103459   -0.00009966
     atom   26 type  6   force =     0.00080530    0.00009463    0.00015443
     atom   27 type  6   force =    -0.00080530    0.00009463   -0.00015443
     atom   28 type  6   force =     0.00042731   -0.00061228   -0.00016564
     atom   29 type  6   force =    -0.00042731   -0.00061228    0.00016564
     atom   30 type  6   force =    -0.00025101    0.00035655    0.00018591
     atom   31 type  6   force =     0.00025101    0.00035655   -0.00018591
     atom   32 type  6   force =     0.00087920   -0.00044086    0.00035749
     atom   33 type  6   force =    -0.00087920   -0.00044086   -0.00035749
     atom   34 type  6   force =     0.00063435   -0.00050419   -0.00032236
     atom   35 type  6   force =    -0.00063435   -0.00050419    0.00032236
     atom   36 type  6   force =    -0.00004569   -0.00008331   -0.00052285
     atom   37 type  6   force =     0.00004569   -0.00008331    0.00052285
     atom   38 type  6   force =    -0.00000780   -0.00004892   -0.00050391
     atom   39 type  6   force =     0.00000780   -0.00004892    0.00050391
     atom   40 type  3   force =     0.00000463    0.00012002   -0.00031575
     atom   41 type  3   force =    -0.00000463    0.00012002    0.00031575
     atom   42 type  3   force =     0.00020059   -0.00047434   -0.00014704
     atom   43 type  3   force =    -0.00020059   -0.00047434    0.00014704
     atom   44 type  2   force =    -0.00000000    0.00089156    0.00000000

     Total force =     0.003324     Total SCF correction =     0.000127

     DFT-D3 dispersion Force =     0.004196
     Energy error            =      2.4E-05 Ry
     Gradient error          =      9.4E-04 Ry/Bohr

     bfgs converged in  18 scf cycles and  17 bfgs steps
     (criteria: energy <  1.0E-04 Ry, force <  1.0E-03 Ry/Bohr)

     End of BFGS Geometry Optimization

     Final energy             =   -2631.2398226796 Ry

     File ./temp/phl-fe1-fe5.bfgs deleted, as requested
Begin final coordinates

ATOMIC_POSITIONS (crystal)
K                0.0000000000        0.4931809375        0.0000000000
K                0.5000000000        0.0027245940        0.0000000000
Mg              -0.0000000000        0.0046650943        0.5000000000
Mg              -0.0000000000        0.3337396451        0.5000000000
Mg              -0.0000000000        0.6650581404        0.5000000000
Mg               0.5000000000        0.4929920995        0.5000000000
Mg               0.5000000000        0.1750790842        0.5000000000
Si               0.0834088206        0.1651793954        0.2217514034
Si               0.9165911654        0.1651793954        0.7782486266
Si               0.9399329991        0.8343597490        0.7730377189
Si               0.0600670009        0.8343597490        0.2269622811
Si               0.5605494505        0.6656642434        0.2251606935
Si               0.4394505495        0.6656642434        0.7748392915
Al               0.4152964364        0.3308461457        0.7765751813
Al               0.5847035636        0.3308461457        0.2234248187
O                0.1280541881        0.1638578268        0.3842727897
O                0.8719457819        0.1638578268        0.6157272393
O                0.8878152961        0.8333582236        0.6121409500
O                0.1121847039        0.8333582236        0.3878590500
O                0.6265444116        0.6653043022        0.3871608385
O                0.3734555884        0.6653043022        0.6128391615
O                0.3610266065        0.3337867592        0.6043624283
O                0.6389733935        0.3337867592        0.3956375717
O                0.3444732404        0.2012269968        0.1647735501
O                0.6555267596        0.2012269968        0.8352264199
O                0.9937171025        0.9978060793        0.1658629476
O                0.0062828975        0.9978060793        0.8341370374
O                0.6870253326        0.7744535525        0.8310719213
O                0.3129746674        0.7744535525        0.1689280787
O                0.8098129564        0.7324804492        0.1650041832
O                0.1901870436        0.7324804492        0.8349958168
O                0.4926241424        0.5069615877        0.1602012083
O                0.5073758276        0.5069615877        0.8397988067
O                0.1414628251        0.2780700249        0.8415517537
O                0.8585371899        0.2780700249        0.1584482463
O                0.1311049456        0.5043630937        0.3938762139
O                0.8688950694        0.5043630937        0.6061237861
O                0.6338736239        1.0042862288        0.3973061268
O                0.3661263761        1.0042862288        0.6026938432
H                0.0986972324        0.4932863072        0.2983535960
H                0.9013027976        0.4932863072        0.7016464040
H                0.5835671947        0.0130967974        0.3017838775
H                0.4164328053        0.0130967974        0.6982161225
Fe               0.5000000000        0.8357799325        0.5000000000
End final coordinates

     Writing all to output data dir ./temp/phl-fe1-fe5.save/ :
     XML data file, charge density, pseudopotentials, collected wavefunctions

     General routines

     Parallel routines

     PAW routines

   This run was terminated on:  11:59:37  14Jan2025

   JOB DONE.