     Program PWSCF v.7.3.1 starts on 30Jan2025 at  8:16:48

     Reading input from vc_relax.in

     Current dimensions of program PWSCF are:
     Max number of different atomic species (ntypx) = 10
     Max number of k-points (npk) =  40000
     Max angular momentum in pseudopotentials (lmaxx) =  4
     file Al.pbe-n-kjpaw_psl.1.0.0.UPF: wavefunction(s)  3S 3P renormalized
     file Fe.pbe-spn-kjpaw_psl.1.0.0.UPF: wavefunction(s)  3P 3D renormalized
     file H.pbe-kjpaw_psl.1.0.0.UPF: wavefunction(s)  1S renormalized
     file K.pbe-spn-kjpaw_psl.1.0.0.UPF: wavefunction(s)  3S renormalized
     file Mg.pbe-spnl-kjpaw_psl.1.0.0.UPF: wavefunction(s)  2P renormalized
     file O.pbe-n-kjpaw_psl.1.0.0.UPF: wavefunction(s)  2S 2P renormalized
     file Si.pbe-n-kjpaw_psl.1.0.0.UPF: wavefunction(s)  3S 3P renormalized

     R & G space division:  proc/nbgrp/npool/nimage =       6
     Subspace diagonalization in iterative solution of the eigenvalue problem:
     one sub-group per band group will be used

     Using Slab Decomposition

     bravais-lattice index     =          -12
     lattice parameter (alat)  =      10.0136  a.u.
     unit-cell volume          =    3303.4414 (a.u.)^3
     number of atoms/cell      =           44
     number of atomic types    =            7
     number of electrons       =       262.00
     number of Kohn-Sham states=          157
     kinetic-energy cutoff     =      60.0000  Ry
     charge density cutoff     =     480.0000  Ry
     scf convergence threshold =      1.0E-06
     mixing beta               =       0.7000
     number of iterations used =            8  plain     mixing
     energy convergence thresh.=      1.0E-04
     force convergence thresh. =      1.0E-03
     press convergence thresh. =      5.0E-01
     Exchange-correlation= SLA  PW   PBX  PBC
                           (   1   4   3   4   0   0   0)
     nstep                     =           50

     celldm(1)=  10.013640  celldm(2)=   1.735306  celldm(3)=   1.926511
     celldm(4)=   0.000000  celldm(5)=  -0.177565  celldm(6)=   0.000000

     crystal axes: (cart. coord. in units of alat)
               a(1) = (   1.000000   0.000000   0.000000 )
               a(2) = (   0.000000   1.735306   0.000000 )
               a(3) = (  -0.342081   0.000000   1.895896 )

     reciprocal axes: (cart. coord. in units 2 pi/alat)
               b(1) = (  1.000000 -0.000000  0.180432 )
               b(2) = (  0.000000  0.576267 -0.000000 )
               b(3) = (  0.000000  0.000000  0.527455 )

     PseudoPot. # 1 for Al read from file:
     ./../../../pseudos/Al.pbe-n-kjpaw_psl.1.0.0.UPF
     MD5 check sum: 502b6b27b9c6270cab5dd1084b96fa6d
     Pseudo is Projector augmented-wave + core cor, Zval =  3.0
     Generated using &quot;atomic&quot; code by A. Dal Corso  v.6.3
     Shape of augmentation charge: PSQ
     Using radial grid of 1135 points,  6 beta functions with:
                l(1) =   0
                l(2) =   0
                l(3) =   1
                l(4) =   1
                l(5) =   2
                l(6) =   2
     Q(r) pseudized with 0 coefficients

     PseudoPot. # 2 for Fe read from file:
     ./../../../pseudos/Fe.pbe-spn-kjpaw_psl.1.0.0.UPF
     MD5 check sum: fc81f059e5c5069939230b1155715ae8
     Pseudo is Projector augmented-wave + core cor, Zval = 16.0
     Generated using &quot;atomic&quot; code by A. Dal Corso  v.6.3
     Shape of augmentation charge: PSQ
     Using radial grid of 1191 points,  6 beta functions with:
                l(1) =   0
                l(2) =   0
                l(3) =   1
                l(4) =   1
                l(5) =   2
                l(6) =   2
     Q(r) pseudized with 0 coefficients

     PseudoPot. # 3 for H  read from file:
     ./../../../pseudos/H.pbe-kjpaw_psl.1.0.0.UPF
     MD5 check sum: d81a744832360e4a8af0b0b5b123bc2a
     Pseudo is Projector augmented-wave, Zval =  1.0
     Generated using &quot;atomic&quot; code by A. Dal Corso  v.6.3MaX
     Shape of augmentation charge: PSQ
     Using radial grid of  929 points,  2 beta functions with:
                l(1) =   0
                l(2) =   0
     Q(r) pseudized with 0 coefficients

     PseudoPot. # 4 for K  read from file:
     ./../../../pseudos/K.pbe-spn-kjpaw_psl.1.0.0.UPF
     MD5 check sum: 34cc42130a09071ebe376fd42eb21491
     Pseudo is Projector augmented-wave + core cor, Zval =  9.0
     Generated using &quot;atomic&quot; code by A. Dal Corso  v.6.2.2
     Shape of augmentation charge: PSQ
     Using radial grid of 1165 points,  6 beta functions with:
                l(1) =   0
                l(2) =   0
                l(3) =   1
                l(4) =   1
                l(5) =   2
                l(6) =   2
     Q(r) pseudized with 0 coefficients

     PseudoPot. # 5 for Mg read from file:
     ./../../../pseudos/Mg.pbe-spnl-kjpaw_psl.1.0.0.UPF
     MD5 check sum: fda14e0d92a6a9a5ebed782e5a4b3067
     Pseudo is Projector augmented-wave + core cor, Zval = 10.0
     Generated using &quot;atomic&quot; code by A. Dal Corso  v.6.3
     Shape of augmentation charge: PSQ
     Using radial grid of 1129 points,  4 beta functions with:
                l(1) =   0
                l(2) =   0
                l(3) =   1
                l(4) =   1
     Q(r) pseudized with 0 coefficients

     PseudoPot. # 6 for O  read from file:
     ./../../../pseudos/O.pbe-n-kjpaw_psl.1.0.0.UPF
     MD5 check sum: e99d9cef9b487d1ca56f5b95ecd0fd7a
     Pseudo is Projector augmented-wave + core cor, Zval =  6.0
     Generated using &quot;atomic&quot; code by A. Dal Corso  v.6.3
     Shape of augmentation charge: PSQ
     Using radial grid of 1095 points,  4 beta functions with:
                l(1) =   0
                l(2) =   0
                l(3) =   1
                l(4) =   1
     Q(r) pseudized with 0 coefficients

     PseudoPot. # 7 for Si read from file:
     ./../../../pseudos/Si.pbe-n-kjpaw_psl.1.0.0.UPF
     MD5 check sum: c39c59da582df4a0d9f10159256ea34e
     Pseudo is Projector augmented-wave + core cor, Zval =  4.0
     Generated using &quot;atomic&quot; code by A. Dal Corso  v.6.3
     Shape of augmentation charge: PSQ
     Using radial grid of 1141 points,  6 beta functions with:
                l(1) =   0
                l(2) =   0
                l(3) =   1
                l(4) =   1
                l(5) =   2
                l(6) =   2
     Q(r) pseudized with 0 coefficients

     atomic species   valence    mass     pseudopotential
     Al                3.00    26.98154     Al( 1.00)
     Fe               16.00    55.84500     Fe( 1.00)
     H                 1.00     1.00794     H ( 1.00)
     K                 9.00    39.09830     K ( 1.00)
     Mg               10.00    24.30500     Mg( 1.00)
     O                 6.00    15.99940     O ( 1.00)
     Si                4.00    28.08550     Si( 1.00)

      2 Sym. Ops. (no inversion) found

                                    s                        frac. trans.

      isym =  1     identity

 cryst.   s( 1) = (     1          0          0      )
                  (     0          1          0      )
                  (     0          0          1      )

 cart.    s( 1) = (  1.0000000  0.0000000 -0.0000000 )
                  (  0.0000000  1.0000000  0.0000000 )
                  (  0.0000000  0.0000000  1.0000000 )

      isym =  2     180 deg rotation - cart. axis [0,1,0]

[...]

     point group C_2  (2)
     there are  2 classes
     the character table:

       E     C2
A      1.00  1.00
B      1.00 -1.00

     the symmetry operations in each class and the name of the first element:

     E        1
          identity
     C2       2
          180 deg rotation - cart. axis [0,1,0]

   Cartesian axes

     site n.     atom                  positions (alat units)
         1        K      tau(   1) = (   0.0000000   0.8549672   0.0000000  )
         2        K      tau(   2) = (   0.5000000   0.0079753   0.0000000  )
         3        Mg     tau(   3) = (  -0.1710407   0.0062586   0.9479482  )
         4        Mg     tau(   4) = (  -0.1710407   0.5811304   0.9479482  )
         5        Mg     tau(   5) = (  -0.1710407   1.1488414   0.9479482  )
         6        Mg     tau(   6) = (   0.3289593   1.4449656   0.9479482  )
         7        Mg     tau(   7) = (   0.3289593   0.3038048   0.9479482  )
         8        Si     tau(   8) = (   0.0050155   0.2867879   0.4235314  )
         9        Si     tau(   9) = (   0.6529032   0.2867879   1.4723651  )
        10        Si     tau(  10) = (   0.6726921   1.4471043   1.4612871  )
        11        Si     tau(  11) = (  -0.0147734   1.4471043   0.4346093  )
        12        Si     tau(  12) = (   0.4842607   1.1549196   0.4294248  )
        13        Si     tau(  13) = (   0.1736580   1.1549196   1.4664715  )
        14        Al     tau(  14) = (   0.1533730   0.5776961   1.4698014  )
        15        Al     tau(  15) = (   0.5045457   0.5776961   0.4260950  )
        16        O      tau(  16) = (  -0.0061521   0.2849874   0.7312828  )
        17        O      tau(  17) = (   0.6640707   0.2849874   1.1646137  )
        18        O      tau(  18) = (   0.6668691   1.4435430   1.1561256  )
        19        O      tau(  19) = (  -0.0089504   1.4435430   0.7397708  )
        20        O      tau(  20) = (   0.4933859   1.1571802   0.7367558  )
        21        O      tau(  21) = (   0.1645328   1.1571802   1.1591406  )
        22        O      tau(  22) = (   0.1590237   0.5860486   1.1422124  )
        23        O      tau(  23) = (   0.4988950   0.5860486   0.7536840  )
        24        O      tau(  24) = (   0.2843092   0.3529355   0.3147192  )
        25        O      tau(  25) = (   0.3736095   0.3529355   1.5811771  )
        26        O      tau(  26) = (   0.9365217   1.7305300   0.3194634  )
        27        O      tau(  27) = (  -0.2786030   1.7305300   1.5764330  )
        28        O      tau(  28) = (   0.4004849   1.3450905   1.5748484  )
        29        O      tau(  29) = (   0.2574338   1.3450905   0.3210480  )
        30        O      tau(  30) = (   0.7556523   1.2701972   0.3188568  )
        31        O      tau(  31) = (  -0.0977336   1.2701972   1.5770396  )
        32        O      tau(  32) = (   0.4363272   0.8815469   0.3032262  )
        33        O      tau(  33) = (   0.2215915   0.8815469   1.5926702  )
        34        O      tau(  34) = (  -0.1411699   0.4801512   1.5916654  )
        35        O      tau(  35) = (   0.7990886   0.4801512   0.3042310  )
        36        O      tau(  36) = (   0.0039788   0.8711194   0.7507476  )
        37        O      tau(  37) = (   0.6539399   0.8711194   1.1451488  )
        38        O      tau(  38) = (   0.4951545   1.7350449   0.7537022  )
        39        O      tau(  39) = (   0.1627642   1.7350449   1.1421942  )
        40        H      tau(  40) = (   0.0259918   0.8528920   0.5703152  )
        41        H      tau(  41) = (   0.6319269   0.8528920   1.3255812  )
        42        H      tau(  42) = (   0.4905572   0.0241982   0.5730244  )
        43        H      tau(  43) = (   0.1673615   0.0241982   1.3228721  )
[...]
     atom    1 type  4   force =     0.00000000   -0.00143565   -0.00000000
     atom    2 type  4   force =    -0.00000000    0.00157014   -0.00000000
     atom    3 type  5   force =     0.00000000    0.00020150   -0.00000000
     atom    4 type  5   force =     0.00000000    0.00032102   -0.00000000
     atom    5 type  5   force =     0.00000000   -0.00032295    0.00000000
     atom    6 type  5   force =     0.00000000    0.00027304    0.00000000
     atom    7 type  5   force =    -0.00000000    0.00047150    0.00000000
     atom    8 type  7   force =     0.00244754    0.01058976    0.00593364
     atom    9 type  7   force =    -0.00244757    0.01058978   -0.00593352
     atom   10 type  7   force =    -0.00004996    0.00286562   -0.01341063
     atom   11 type  7   force =     0.00004999    0.00286562    0.01341058
     atom   12 type  7   force =    -0.00149402   -0.01158969    0.00925180
     atom   13 type  7   force =     0.00149399   -0.01158967   -0.00925188
     atom   14 type  1   force =    -0.00033845   -0.00164496   -0.00877156
     atom   15 type  1   force =     0.00033843   -0.00164496    0.00877153
     atom   16 type  6   force =    -0.00011486    0.00019523    0.00650060
     atom   17 type  6   force =     0.00011483    0.00019523   -0.00650060
     atom   18 type  6   force =    -0.00012332   -0.00001027   -0.00704214
     atom   19 type  6   force =     0.00012332   -0.00001027    0.00704214
     atom   20 type  6   force =     0.00098075    0.00094649    0.00639506
     atom   21 type  6   force =    -0.00098075    0.00094649   -0.00639506
     atom   22 type  6   force =    -0.00091311   -0.00131244   -0.00257927
     atom   23 type  6   force =     0.00091310   -0.00131246    0.00257928
     atom   24 type  6   force =     0.00470409   -0.00186363   -0.00581031
     atom   25 type  6   force =    -0.00470409   -0.00186363    0.00581030
     atom   26 type  6   force =    -0.00358265    0.00078717   -0.00711731
     atom   27 type  6   force =     0.00358266    0.00078717    0.00711729
     atom   28 type  6   force =    -0.00175999    0.00252131    0.00729109
     atom   29 type  6   force =     0.00175999    0.00252131   -0.00729106
     atom   30 type  6   force =     0.00096912   -0.00222298   -0.00750586
     atom   31 type  6   force =    -0.00096912   -0.00222297    0.00750584
     atom   32 type  6   force =    -0.00265520   -0.00342555   -0.00680393
     atom   33 type  6   force =     0.00265519   -0.00342555    0.00680393
     atom   34 type  6   force =     0.00105415    0.00417450    0.00641826
     atom   35 type  6   force =    -0.00105415    0.00417450   -0.00641824
     atom   36 type  6   force =    -0.00328309    0.00076060    0.01058517
     atom   37 type  6   force =     0.00328307    0.00076061   -0.01058520
     atom   38 type  6   force =    -0.00015200   -0.00124317    0.01114512
     atom   39 type  6   force =     0.00015200   -0.00124317   -0.01114512
     atom   40 type  3   force =     0.00000000    0.00000000    0.00000000
     atom   41 type  3   force =     0.00000000    0.00000000    0.00000000
     atom   42 type  3   force =     0.00000000    0.00000000    0.00000000
     atom   43 type  3   force =     0.00000000    0.00000000    0.00000000
     atom   44 type  2   force =     0.00000000   -0.00257196   -0.00000000
     The Hubbard contrib.    to forces
     atom    1 type  4   force =     0.00000000    0.00000000    0.00000000
     atom    2 type  4   force =     0.00000000    0.00000000    0.00000000
     atom    3 type  5   force =     0.00000000    0.00000000    0.00000000
     atom    4 type  5   force =     0.00000000    0.00000000    0.00000000
     atom    5 type  5   force =     0.00000000    0.00000000    0.00000000
     atom    6 type  5   force =     0.00000000    0.00000000    0.00000000
     atom    7 type  5   force =     0.00000000    0.00000000    0.00000000
     atom    8 type  7   force =     0.00000000    0.00000000    0.00000000
     atom    9 type  7   force =     0.00000000    0.00000000    0.00000000
     atom   10 type  7   force =     0.00000000    0.00000000    0.00000000
     atom   11 type  7   force =     0.00000000    0.00000000    0.00000000
     atom   12 type  7   force =     0.00000000    0.00000000    0.00000000
     atom   13 type  7   force =     0.00000000    0.00000000    0.00000000
     atom   14 type  1   force =     0.00000000    0.00000000    0.00000000
     atom   15 type  1   force =     0.00000000    0.00000000    0.00000000
     atom   16 type  6   force =     0.00000000    0.00000000    0.00000000
     atom   17 type  6   force =     0.00000000    0.00000000    0.00000000
     atom   18 type  6   force =     0.00000000    0.00000000    0.00000000
     atom   19 type  6   force =     0.00000000    0.00000000    0.00000000
     atom   20 type  6   force =     0.00000000    0.00000000    0.00000000
     atom   21 type  6   force =     0.00000000    0.00000000    0.00000000
     atom   22 type  6   force =     0.00000000    0.00000000    0.00000000
     atom   23 type  6   force =     0.00000000    0.00000000    0.00000000
     atom   24 type  6   force =     0.00000000    0.00000000    0.00000000
     atom   25 type  6   force =     0.00000000    0.00000000    0.00000000
     atom   26 type  6   force =     0.00000000    0.00000000    0.00000000
     atom   27 type  6   force =     0.00000000    0.00000000    0.00000000
     atom   28 type  6   force =     0.00000000    0.00000000    0.00000000
     atom   29 type  6   force =     0.00000000    0.00000000    0.00000000
     atom   30 type  6   force =     0.00000000    0.00000000    0.00000000
     atom   31 type  6   force =     0.00000000    0.00000000    0.00000000
     atom   32 type  6   force =     0.00000000    0.00000000    0.00000000
     atom   33 type  6   force =     0.00000000    0.00000000    0.00000000
     atom   34 type  6   force =     0.00000000    0.00000000    0.00000000
     atom   35 type  6   force =     0.00000000    0.00000000    0.00000000
     atom   36 type  6   force =     0.00000000    0.00000000    0.00000000
     atom   37 type  6   force =     0.00000000    0.00000000    0.00000000
     atom   38 type  6   force =     0.00000000    0.00000000    0.00000000
     atom   39 type  6   force =     0.00000000    0.00000000    0.00000000
     atom   40 type  3   force =     0.00000000    0.00000000    0.00000000
     atom   41 type  3   force =     0.00000000    0.00000000    0.00000000
     atom   42 type  3   force =     0.00000000    0.00000000    0.00000000
     atom   43 type  3   force =     0.00000000    0.00000000    0.00000000
     atom   44 type  2   force =     0.00000000    0.00000000    0.00000000
     The SCF correction term to forces
     atom    1 type  4   force =     0.00000000    0.00000231   -0.00000000
     atom    2 type  4   force =     0.00000000   -0.00000741   -0.00000000
     atom    3 type  5   force =     0.00000000   -0.00003303   -0.00000000
     atom    4 type  5   force =     0.00000000    0.00000262    0.00000000
     atom    5 type  5   force =     0.00000000    0.00002705    0.00000000
     atom    6 type  5   force =     0.00000000    0.00003299    0.00000000
     atom    7 type  5   force =     0.00000000   -0.00006711    0.00000000
     atom    8 type  7   force =     0.00000386   -0.00000262   -0.00003213
     atom    9 type  7   force =    -0.00000386   -0.00000262    0.00003213
     atom   10 type  7   force =     0.00000066    0.00000345    0.00002055
     atom   11 type  7   force =    -0.00000066    0.00000345   -0.00002055
     atom   12 type  7   force =    -0.00000014    0.00000576   -0.00001699
     atom   13 type  7   force =     0.00000014    0.00000576    0.00001699
     atom   14 type  1   force =    -0.00000035   -0.00000346    0.00001875
     atom   15 type  1   force =     0.00000035   -0.00000346   -0.00001875
     atom   16 type  6   force =     0.00000496   -0.00003280   -0.00003318
     atom   17 type  6   force =    -0.00000496   -0.00003280    0.00003318
     atom   18 type  6   force =    -0.00000162    0.00001509    0.00002762
     atom   19 type  6   force =     0.00000162    0.00001509   -0.00002762
     atom   20 type  6   force =     0.00000233    0.00002637   -0.00002477
     atom   21 type  6   force =    -0.00000233    0.00002637    0.00002477
     atom   22 type  6   force =    -0.00000388   -0.00000247   -0.00000470
     atom   23 type  6   force =     0.00000388   -0.00000247    0.00000470
     atom   24 type  6   force =    -0.00002910   -0.00003350   -0.00004795
     atom   25 type  6   force =     0.00002910   -0.00003350    0.00004795
     atom   26 type  6   force =     0.00000894   -0.00001814   -0.00001855
     atom   27 type  6   force =    -0.00000894   -0.00001814    0.00001855
     atom   28 type  6   force =     0.00000811    0.00001452    0.00002202
     atom   29 type  6   force =    -0.00000811    0.00001452   -0.00002202
     atom   30 type  6   force =     0.00000518    0.00002156   -0.00002245
     atom   31 type  6   force =    -0.00000518    0.00002156    0.00002245
     atom   32 type  6   force =    -0.00000592    0.00003376   -0.00003811
     atom   33 type  6   force =     0.00000592    0.00003376    0.00003811
     atom   34 type  6   force =    -0.00003310   -0.00002160    0.00005162
     atom   35 type  6   force =     0.00003310   -0.00002160   -0.00005162
     atom   36 type  6   force =    -0.00001196    0.00001660   -0.00002285
     atom   37 type  6   force =     0.00001196    0.00001660    0.00002285
     atom   38 type  6   force =    -0.00000463   -0.00002394   -0.00000212
     atom   39 type  6   force =     0.00000463   -0.00002394    0.00000212
     atom   40 type  3   force =    -0.00000045    0.00000207   -0.00000720
     atom   41 type  3   force =     0.00000045    0.00000207    0.00000720
     atom   42 type  3   force =    -0.00000056   -0.00000425    0.00000517
     atom   43 type  3   force =     0.00000056   -0.00000425   -0.00000517
     atom   44 type  2   force =    -0.00000000    0.00006598    0.00000000

     DFT-D3 dispersion contribution to forces:
     atom    1 type  4   force =    -0.00000000    0.00092439   -0.00000000
     atom    2 type  4   force =    -0.00000000   -0.00076519    0.00000000
     atom    3 type  5   force =     0.00000000    0.00028676    0.00000000
     atom    4 type  5   force =    -0.00000000    0.00094690    0.00000000
     atom    5 type  5   force =    -0.00000000   -0.00153377    0.00000000
     atom    6 type  5   force =    -0.00000000    0.00084469    0.00000000
     atom    7 type  5   force =    -0.00000000   -0.00002563    0.00000000
     atom    8 type  7   force =     0.00001328   -0.00015728   -0.00029315
     atom    9 type  7   force =    -0.00001328   -0.00015728    0.00029315
     atom   10 type  7   force =     0.00004678    0.00007004    0.00018149
     atom   11 type  7   force =    -0.00004678    0.00007004   -0.00018149
     atom   12 type  7   force =     0.00002256    0.00003274    0.00003051
     atom   13 type  7   force =    -0.00002256    0.00003274   -0.00003051
     atom   14 type  1   force =    -0.00006315    0.00014969   -0.00116275
     atom   15 type  1   force =     0.00006315    0.00014969    0.00116275
     atom   16 type  6   force =     0.00001497    0.00004797    0.00047775
     atom   17 type  6   force =    -0.00001497    0.00004797   -0.00047775
     atom   18 type  6   force =    -0.00001259    0.00003497   -0.00039580
     atom   19 type  6   force =     0.00001259    0.00003497    0.00039580
     atom   20 type  6   force =    -0.00003801   -0.00003176    0.00042410
     atom   21 type  6   force =     0.00003801   -0.00003176   -0.00042410
     atom   22 type  6   force =    -0.00004826   -0.00011536    0.00013545
     atom   23 type  6   force =     0.00004826   -0.00011536   -0.00013545
     atom   24 type  6   force =    -0.00019305    0.00099868    0.00028915
     atom   25 type  6   force =     0.00019305    0.00099868   -0.00028914
     atom   26 type  6   force =     0.00084472    0.00007154    0.00021355
     atom   27 type  6   force =    -0.00084472    0.00007154   -0.00021355
     atom   28 type  6   force =     0.00036432   -0.00056560   -0.00003284
     atom   29 type  6   force =    -0.00036432   -0.00056560    0.00003284
     atom   30 type  6   force =    -0.00023352    0.00039427   -0.00001641
     atom   31 type  6   force =     0.00023352    0.00039427    0.00001641
     atom   32 type  6   force =     0.00096439   -0.00043168    0.00043136
     atom   33 type  6   force =    -0.00096439   -0.00043168   -0.00043136
     atom   34 type  6   force =     0.00064453   -0.00051631   -0.00044062
     atom   35 type  6   force =    -0.00064453   -0.00051631    0.00044062
     atom   36 type  6   force =    -0.00012873   -0.00001031   -0.00052961
     atom   37 type  6   force =     0.00012873   -0.00001031    0.00052961
     atom   38 type  6   force =     0.00002879    0.00003733   -0.00050018
     atom   39 type  6   force =    -0.00002879    0.00003733    0.00050018
     atom   40 type  3   force =    -0.00031343    0.00015152   -0.00023536
     atom   41 type  3   force =     0.00031343    0.00015152    0.00023536
     atom   42 type  3   force =     0.00001382   -0.00039339   -0.00024248
     atom   43 type  3   force =    -0.00001382   -0.00039339    0.00024248
     atom   44 type  2   force =     0.00000000   -0.00021222    0.00000000

     Total force =     0.002277     Total SCF correction =     0.000236

     DFT-D3 dispersion Force =     0.004597
     SCF correction compared to forces is large: reduce conv_thr to get better values

     Computing stress (Cartesian axis) and pressure

          total   stress  (Ry/bohr**3)                   (kbar)     P=       -0.12
  -0.00000008   0.00000000   0.00000120           -0.01        0.00        0.18
   0.00000000   0.00000149   0.00000000            0.00        0.22        0.00
   0.00000120   0.00000000  -0.00000378            0.18        0.00       -0.56

     kinetic stress (kbar)  20349.10      0.00     16.09
                                0.00  20351.03      0.00
                               16.09      0.00  20062.24

     local   stress (kbar) -42495.31      0.00     91.71
                                0.00 -42149.09     -0.00
                               91.71     -0.00  21138.60

     nonloc. stress (kbar)   3830.85      0.00      0.25
                                0.00   3832.15      0.00
                                0.25      0.00   3813.75

     hartree stress (kbar)  23857.62      0.00    -39.76
                                0.00  23700.10      0.00
                              -39.76      0.00  -7253.79

     exc-cor stress (kbar)  -2848.20     -0.00     -0.09
                               -0.00  -2848.51      0.00
                               -0.09      0.00  -2845.29

     corecor stress (kbar)  -1878.21      0.00     -0.09
                                0.00  -1878.30     -0.00
                               -0.09     -0.00  -1879.82

     ewald   stress (kbar)   -800.85     -0.00    -68.07
                               -0.00   -991.90      0.00
                              -68.07      0.00 -33025.16

     hubbard stress (kbar)      0.00      0.00      0.00
                                0.00      0.00      0.00
                                0.00      0.00      0.00

     DFT-D   stress (kbar)    -15.01     -0.00      0.15
                               -0.00    -15.27      0.00
                                0.15      0.00    -11.10

     XDM     stress (kbar)      0.00      0.00      0.00
                                0.00      0.00      0.00
                                0.00      0.00      0.00

     dft-nl  stress (kbar)      0.00      0.00      0.00
                                0.00      0.00      0.00
                                0.00      0.00      0.00

     TS-vdW  stress (kbar)      0.00      0.00      0.00
                                0.00      0.00      0.00
                                0.00      0.00      0.00

     MDB     stress (kbar)      0.00      0.00      0.00
                                0.00      0.00      0.00
                                0.00      0.00      0.00

     3D-RISM stress (kbar)      0.00      0.00      0.00
                                0.00      0.00      0.00
                                0.00      0.00      0.00

     Writing all to output data dir ./temp/phl-fe1-fe4-nspin.save/ :
     XML data file, charge density, pseudopotentials, collected wavefunctions

     General routines

     Parallel routines

     PAW routines

   This run was terminated on:  16:52:48  31Jan2025

   JOB DONE.