     Program PWSCF v.7.3.1 starts on 28Jan2025 at 13:48:49

     Reading input from relax.in
Warning: card  &CELL ignored
Warning: card    CELL_DOFREE     = 'IBRAV' ignored
Warning: card  / ignored

     Current dimensions of program PWSCF are:
     Max number of different atomic species (ntypx) = 10
     Max number of k-points (npk) =  40000
     Max angular momentum in pseudopotentials (lmaxx) =  4
     file Al.pbe-n-kjpaw_psl.1.0.0.UPF: wavefunction(s)  3S 3P renormalized
     file Fe.pbe-spn-kjpaw_psl.1.0.0.UPF: wavefunction(s)  3P 3D renormalized
     file H.pbe-kjpaw_psl.1.0.0.UPF: wavefunction(s)  1S renormalized
     file K.pbe-spn-kjpaw_psl.1.0.0.UPF: wavefunction(s)  3S renormalized
     file Mg.pbe-spnl-kjpaw_psl.1.0.0.UPF: wavefunction(s)  2P renormalized
     file O.pbe-n-kjpaw_psl.1.0.0.UPF: wavefunction(s)  2S 2P renormalized
     file Si.pbe-n-kjpaw_psl.1.0.0.UPF: wavefunction(s)  3S 3P renormalized

     R & G space division:  proc/nbgrp/npool/nimage =       6
     Subspace diagonalization in iterative solution of the eigenvalue problem:
     one sub-group per band group will be used

     Using Slab Decomposition

     bravais-lattice index     =          -12
     lattice parameter (alat)  =      10.0136  a.u.
     unit-cell volume          =    3303.4414 (a.u.)^3
     number of atoms/cell      =           44
     number of atomic types    =            7
     number of electrons       =       262.00
     number of Kohn-Sham states=          157
     kinetic-energy cutoff     =      60.0000  Ry
     charge density cutoff     =     480.0000  Ry
     scf convergence threshold =      1.0E-06
     mixing beta               =       0.7000
     number of iterations used =            8  plain     mixing
     energy convergence thresh.=      1.0E-04
     force convergence thresh. =      1.0E-03
     Exchange-correlation= SLA  PW   PBX  PBC
                           (   1   4   3   4   0   0   0)
     nstep                     =           50

     celldm(1)=  10.013640  celldm(2)=   1.735306  celldm(3)=   1.926511
     celldm(4)=   0.000000  celldm(5)=  -0.177565  celldm(6)=   0.000000

     crystal axes: (cart. coord. in units of alat)
               a(1) = (   1.000000   0.000000   0.000000 )
               a(2) = (   0.000000   1.735306   0.000000 )
               a(3) = (  -0.342081   0.000000   1.895896 )

     reciprocal axes: (cart. coord. in units 2 pi/alat)
               b(1) = (  1.000000 -0.000000  0.180432 )
               b(2) = (  0.000000  0.576267 -0.000000 )
               b(3) = (  0.000000  0.000000  0.527455 )

     PseudoPot. # 1 for Al read from file:
     ./../../../pseudos/Al.pbe-n-kjpaw_psl.1.0.0.UPF
     MD5 check sum: 502b6b27b9c6270cab5dd1084b96fa6d
     Pseudo is Projector augmented-wave + core cor, Zval =  3.0
     Generated using &quot;atomic&quot; code by A. Dal Corso  v.6.3
     Shape of augmentation charge: PSQ
     Using radial grid of 1135 points,  6 beta functions with:
                l(1) =   0
                l(2) =   0
                l(3) =   1
                l(4) =   1
                l(5) =   2
                l(6) =   2
     Q(r) pseudized with 0 coefficients

     PseudoPot. # 2 for Fe read from file:
     ./../../../pseudos/Fe.pbe-spn-kjpaw_psl.1.0.0.UPF
     MD5 check sum: fc81f059e5c5069939230b1155715ae8
     Pseudo is Projector augmented-wave + core cor, Zval = 16.0
     Generated using &quot;atomic&quot; code by A. Dal Corso  v.6.3
     Shape of augmentation charge: PSQ
     Using radial grid of 1191 points,  6 beta functions with:
                l(1) =   0
                l(2) =   0
                l(3) =   1
                l(4) =   1
                l(5) =   2
                l(6) =   2
     Q(r) pseudized with 0 coefficients

     PseudoPot. # 3 for H  read from file:
     ./../../../pseudos/H.pbe-kjpaw_psl.1.0.0.UPF
     MD5 check sum: d81a744832360e4a8af0b0b5b123bc2a
     Pseudo is Projector augmented-wave, Zval =  1.0
     Generated using &quot;atomic&quot; code by A. Dal Corso  v.6.3MaX
     Shape of augmentation charge: PSQ
     Using radial grid of  929 points,  2 beta functions with:
                l(1) =   0
                l(2) =   0
     Q(r) pseudized with 0 coefficients

     PseudoPot. # 4 for K  read from file:
     ./../../../pseudos/K.pbe-spn-kjpaw_psl.1.0.0.UPF
     MD5 check sum: 34cc42130a09071ebe376fd42eb21491
     Pseudo is Projector augmented-wave + core cor, Zval =  9.0
     Generated using &quot;atomic&quot; code by A. Dal Corso  v.6.2.2
     Shape of augmentation charge: PSQ
     Using radial grid of 1165 points,  6 beta functions with:
                l(1) =   0
                l(2) =   0
                l(3) =   1
                l(4) =   1
                l(5) =   2
                l(6) =   2
     Q(r) pseudized with 0 coefficients

     PseudoPot. # 5 for Mg read from file:
     ./../../../pseudos/Mg.pbe-spnl-kjpaw_psl.1.0.0.UPF
     MD5 check sum: fda14e0d92a6a9a5ebed782e5a4b3067
     Pseudo is Projector augmented-wave + core cor, Zval = 10.0
     Generated using &quot;atomic&quot; code by A. Dal Corso  v.6.3
     Shape of augmentation charge: PSQ
     Using radial grid of 1129 points,  4 beta functions with:
                l(1) =   0
                l(2) =   0
                l(3) =   1
                l(4) =   1
     Q(r) pseudized with 0 coefficients

     PseudoPot. # 6 for O  read from file:
     ./../../../pseudos/O.pbe-n-kjpaw_psl.1.0.0.UPF
     MD5 check sum: e99d9cef9b487d1ca56f5b95ecd0fd7a
     Pseudo is Projector augmented-wave + core cor, Zval =  6.0
     Generated using &quot;atomic&quot; code by A. Dal Corso  v.6.3
     Shape of augmentation charge: PSQ
     Using radial grid of 1095 points,  4 beta functions with:
                l(1) =   0
                l(2) =   0
                l(3) =   1
                l(4) =   1
     Q(r) pseudized with 0 coefficients

     PseudoPot. # 7 for Si read from file:
     ./../../../pseudos/Si.pbe-n-kjpaw_psl.1.0.0.UPF
     MD5 check sum: c39c59da582df4a0d9f10159256ea34e
     Pseudo is Projector augmented-wave + core cor, Zval =  4.0
     Generated using &quot;atomic&quot; code by A. Dal Corso  v.6.3
     Shape of augmentation charge: PSQ
     Using radial grid of 1141 points,  6 beta functions with:
                l(1) =   0
                l(2) =   0
                l(3) =   1
                l(4) =   1
                l(5) =   2
                l(6) =   2
     Q(r) pseudized with 0 coefficients

     atomic species   valence    mass     pseudopotential
     Al                3.00    26.98154     Al( 1.00)
     Fe               16.00    55.84500     Fe( 1.00)
     H                 1.00     1.00794     H ( 1.00)
     K                 9.00    39.09830     K ( 1.00)
     Mg               10.00    24.30500     Mg( 1.00)
     O                 6.00    15.99940     O ( 1.00)
     Si                4.00    28.08550     Si( 1.00)

      2 Sym. Ops. (no inversion) found

                                    s                        frac. trans.

      isym =  1     identity

 cryst.   s( 1) = (     1          0          0      )
                  (     0          1          0      )
                  (     0          0          1      )

 cart.    s( 1) = (  1.0000000  0.0000000 -0.0000000 )
                  (  0.0000000  1.0000000  0.0000000 )
                  (  0.0000000  0.0000000  1.0000000 )

      isym =  2     180 deg rotation - cart. axis [0,1,0]

 cryst.   s( 2) = (    -1          0          0      )
                  (     0          1          0      )
                  (     0          0         -1      )

 cart.    s( 2) = ( -1.0000000  0.0000000  0.0000000 )
                  (  0.0000000  1.0000000  0.0000000 )
                  (  0.0000000  0.0000000 -1.0000000 )

     point group C_2  (2)
     there are  2 classes
     the character table:

       E     C2
A      1.00  1.00
B      1.00 -1.00

     the symmetry operations in each class and the name of the first element:

     E        1
          identity
     C2       2
          180 deg rotation - cart. axis [0,1,0]

   Cartesian axes

     site n.     atom                  positions (alat units)
         1        K      tau(   1) = (   0.0000000   0.8559224   0.0000000  )
         2        K      tau(   2) = (   0.5000000   0.0093568   0.0000000  )
         3        Mg     tau(   3) = (  -0.1710407   0.0067712   0.9479482  )
         4        Mg     tau(   4) = (  -0.1710407   0.5780843   0.9479482  )
         5        Mg     tau(   5) = (  -0.1710407   1.1543881   0.9479482  )
         6        Mg     tau(   6) = (   0.3289593   1.4480089   0.9479482  )
         7        Mg     tau(   7) = (   0.3289593   0.2986375   0.9479482  )
         8        Si     tau(   8) = (   0.0066674   0.2865251   0.4219393  )
         9        Si     tau(   9) = (   0.6512512   0.2865251   1.4739571  )
        10        Si     tau(  10) = (   0.6701371   1.4476688   1.4628623  )
        11        Si     tau(  11) = (  -0.0122184   1.4476688   0.4330341  )
        12        Si     tau(  12) = (   0.4872056   1.1568454   0.4292651  )
        13        Si     tau(  13) = (   0.1707131   1.1568454   1.4666313  )
        14        Al     tau(  14) = (   0.1506005   0.5746762   1.4713786  )
        15        Al     tau(  15) = (   0.5073182   0.5746762   0.4245178  )
        16        O      tau(  16) = (  -0.0043508   0.2833738   0.7297400  )
        17        O      tau(  17) = (   0.6622695   0.2833738   1.1661564  )
        18        O      tau(  18) = (   0.6658139   1.4451231   1.1576912  )
        19        O      tau(  19) = (  -0.0078952   1.4451231   0.7382052  )
        20        O      tau(  20) = (   0.4926234   1.1618863   0.7357690  )
        21        O      tau(  21) = (   0.1652953   1.1618863   1.1601274  )
        22        O      tau(  22) = (   0.1548298   0.5779784   1.1454267  )
        23        O      tau(  23) = (   0.5030889   0.5779784   0.7504697  )
        24        O      tau(  24) = (   0.2847398   0.3548857   0.3143567  )
        25        O      tau(  25) = (   0.3731789   0.3548857   1.5815397  )
        26        O      tau(  26) = (   0.9404978   1.7303189   0.3181314  )
        27        O      tau(  27) = (  -0.2825791   1.7303189   1.5777650  )
        28        O      tau(  28) = (   0.3988927   1.3439356   1.5754330  )
        29        O      tau(  29) = (   0.2590260   1.3439356   0.3204634  )
        30        O      tau(  30) = (   0.7582660   1.2710892   0.3185125  )
        31        O      tau(  31) = (  -0.1003473   1.2710892   1.5773839  )
        32        O      tau(  32) = (   0.4432368   0.8811364   0.3085875  )
        33        O      tau(  33) = (   0.2146819   0.8811364   1.5873090  )
        34        O      tau(  34) = (  -0.1423236   0.4782556   1.5925436  )
        35        O      tau(  35) = (   0.8002423   0.4782556   0.3033529  )
        36        O      tau(  36) = (  -0.0041068   0.8750247   0.7469263  )
        37        O      tau(  37) = (   0.6620255   0.8750247   1.1489701  )
        38        O      tau(  38) = (   0.4966158   1.7335917   0.7534577  )
[...]
     atom   11 type  7   force =    -0.00011197    0.00316358    0.01389765
     atom   12 type  7   force =    -0.00161810   -0.01202460    0.00975384
     atom   13 type  7   force =     0.00161811   -0.01202460   -0.00975388
     atom   14 type  1   force =    -0.00029628   -0.00155555   -0.00928281
     atom   15 type  1   force =     0.00029628   -0.00155555    0.00928281
     atom   16 type  6   force =    -0.00013853    0.00020548    0.00651624
     atom   17 type  6   force =     0.00013851    0.00020548   -0.00651623
     atom   18 type  6   force =    -0.00009752   -0.00003778   -0.00706400
     atom   19 type  6   force =     0.00009752   -0.00003778    0.00706400
     atom   20 type  6   force =     0.00097143    0.00096226    0.00640783
     atom   21 type  6   force =    -0.00097143    0.00096226   -0.00640783
     atom   22 type  6   force =    -0.00089827   -0.00131510   -0.00259836
     atom   23 type  6   force =     0.00089827   -0.00131510    0.00259836
     atom   24 type  6   force =     0.00471569   -0.00189667   -0.00579355
     atom   25 type  6   force =    -0.00471570   -0.00189667    0.00579352
     atom   26 type  6   force =    -0.00362188    0.00081565   -0.00706443
     atom   27 type  6   force =     0.00362188    0.00081565    0.00706442
     atom   28 type  6   force =    -0.00178588    0.00256566    0.00725867
     atom   29 type  6   force =     0.00178588    0.00256566   -0.00725867
     atom   30 type  6   force =     0.00098494   -0.00226875   -0.00747669
     atom   31 type  6   force =    -0.00098494   -0.00226875    0.00747669
     atom   32 type  6   force =    -0.00266245   -0.00344048   -0.00682856
     atom   33 type  6   force =     0.00266243   -0.00344048    0.00682858
     atom   34 type  6   force =     0.00103401    0.00421542    0.00639567
     atom   35 type  6   force =    -0.00103401    0.00421542   -0.00639567
     atom   36 type  6   force =    -0.00319925    0.00088914    0.01061555
     atom   37 type  6   force =     0.00319926    0.00088914   -0.01061555
     atom   38 type  6   force =    -0.00004169   -0.00132425    0.01115424
     atom   39 type  6   force =     0.00004170   -0.00132424   -0.01115422
     atom   40 type  3   force =     0.00000000    0.00000000    0.00000000
     atom   41 type  3   force =     0.00000000    0.00000000    0.00000000
     atom   42 type  3   force =     0.00000000    0.00000000    0.00000000
     atom   43 type  3   force =     0.00000000    0.00000000    0.00000000
     atom   44 type  2   force =    -0.00000000   -0.00276152    0.00000000
     The Hubbard contrib.    to forces
     atom    1 type  4   force =     0.00000000    0.00000000    0.00000000
     atom    2 type  4   force =     0.00000000    0.00000000    0.00000000
     atom    3 type  5   force =     0.00000000    0.00000000    0.00000000
     atom    4 type  5   force =     0.00000000    0.00000000    0.00000000
     atom    5 type  5   force =     0.00000000    0.00000000    0.00000000
     atom    6 type  5   force =     0.00000000    0.00000000    0.00000000
     atom    7 type  5   force =     0.00000000    0.00000000    0.00000000
     atom    8 type  7   force =     0.00000000    0.00000000    0.00000000
     atom    9 type  7   force =     0.00000000    0.00000000    0.00000000
     atom   10 type  7   force =     0.00000000    0.00000000    0.00000000
     atom   11 type  7   force =     0.00000000    0.00000000    0.00000000
     atom   12 type  7   force =     0.00000000    0.00000000    0.00000000
     atom   13 type  7   force =     0.00000000    0.00000000    0.00000000
     atom   14 type  1   force =     0.00000000    0.00000000    0.00000000
     atom   15 type  1   force =     0.00000000    0.00000000    0.00000000
     atom   16 type  6   force =     0.00000000    0.00000000    0.00000000
     atom   17 type  6   force =     0.00000000    0.00000000    0.00000000
     atom   18 type  6   force =     0.00000000    0.00000000    0.00000000
     atom   19 type  6   force =     0.00000000    0.00000000    0.00000000
     atom   20 type  6   force =     0.00000000    0.00000000    0.00000000
     atom   21 type  6   force =     0.00000000    0.00000000    0.00000000
     atom   22 type  6   force =     0.00000000    0.00000000    0.00000000
     atom   23 type  6   force =     0.00000000    0.00000000    0.00000000
     atom   24 type  6   force =     0.00000000    0.00000000    0.00000000
     atom   25 type  6   force =     0.00000000    0.00000000    0.00000000
     atom   26 type  6   force =     0.00000000    0.00000000    0.00000000
     atom   27 type  6   force =     0.00000000    0.00000000    0.00000000
     atom   28 type  6   force =     0.00000000    0.00000000    0.00000000
     atom   29 type  6   force =     0.00000000    0.00000000    0.00000000
     atom   30 type  6   force =     0.00000000    0.00000000    0.00000000
     atom   31 type  6   force =     0.00000000    0.00000000    0.00000000
     atom   32 type  6   force =     0.00000000    0.00000000    0.00000000
     atom   33 type  6   force =     0.00000000    0.00000000    0.00000000
     atom   34 type  6   force =     0.00000000    0.00000000    0.00000000
     atom   35 type  6   force =     0.00000000    0.00000000    0.00000000
     atom   36 type  6   force =     0.00000000    0.00000000    0.00000000
     atom   37 type  6   force =     0.00000000    0.00000000    0.00000000
     atom   38 type  6   force =     0.00000000    0.00000000    0.00000000
     atom   39 type  6   force =     0.00000000    0.00000000    0.00000000
     atom   40 type  3   force =     0.00000000    0.00000000    0.00000000
     atom   41 type  3   force =     0.00000000    0.00000000    0.00000000
     atom   42 type  3   force =     0.00000000    0.00000000    0.00000000
     atom   43 type  3   force =     0.00000000    0.00000000    0.00000000
     atom   44 type  2   force =     0.00000000    0.00000000    0.00000000
     The SCF correction term to forces
     atom    1 type  4   force =    -0.00000000    0.00000070   -0.00000000
     atom    2 type  4   force =     0.00000000    0.00000712   -0.00000000
     atom    3 type  5   force =    -0.00000000    0.00004607    0.00000000
     atom    4 type  5   force =     0.00000000    0.00002601   -0.00000000
     atom    5 type  5   force =    -0.00000000   -0.00007776    0.00000000
     atom    6 type  5   force =    -0.00000000    0.00001802    0.00000000
     atom    7 type  5   force =    -0.00000000   -0.00000613   -0.00000000
     atom    8 type  7   force =     0.00000298    0.00000034    0.00000728
     atom    9 type  7   force =    -0.00000298    0.00000034   -0.00000728
     atom   10 type  7   force =    -0.00000356   -0.00000263   -0.00000474
     atom   11 type  7   force =     0.00000356   -0.00000263    0.00000474
     atom   12 type  7   force =    -0.00000035   -0.00001264   -0.00001041
     atom   13 type  7   force =     0.00000035   -0.00001264    0.00001041
     atom   14 type  1   force =    -0.00000038    0.00000844   -0.00000208
     atom   15 type  1   force =     0.00000038    0.00000844    0.00000208
     atom   16 type  6   force =    -0.00000420   -0.00003771    0.00001937
     atom   17 type  6   force =     0.00000420   -0.00003771   -0.00001937
     atom   18 type  6   force =     0.00000124    0.00002122    0.00002984
     atom   19 type  6   force =    -0.00000124    0.00002122   -0.00002984
     atom   20 type  6   force =     0.00000348   -0.00007568   -0.00000857
     atom   21 type  6   force =    -0.00000348   -0.00007568    0.00000857
     atom   22 type  6   force =     0.00000098    0.00003068   -0.00000255
     atom   23 type  6   force =    -0.00000098    0.00003068    0.00000255
     atom   24 type  6   force =    -0.00000176    0.00001916    0.00000658
     atom   25 type  6   force =     0.00000176    0.00001916   -0.00000658
     atom   26 type  6   force =     0.00004268   -0.00001016    0.00007593
     atom   27 type  6   force =    -0.00004268   -0.00001016   -0.00007593
     atom   28 type  6   force =    -0.00001252   -0.00004391   -0.00001869
     atom   29 type  6   force =     0.00001252   -0.00004391    0.00001869
     atom   30 type  6   force =    -0.00000653   -0.00004236   -0.00000130
     atom   31 type  6   force =     0.00000653   -0.00004236    0.00000130
     atom   32 type  6   force =     0.00002070    0.00002621   -0.00004040
     atom   33 type  6   force =    -0.00002070    0.00002621    0.00004040
     atom   34 type  6   force =    -0.00000749    0.00004675   -0.00000115
     atom   35 type  6   force =     0.00000749    0.00004675    0.00000115
     atom   36 type  6   force =    -0.00000632   -0.00000858    0.00003091
     atom   37 type  6   force =     0.00000632   -0.00000858   -0.00003091
     atom   38 type  6   force =     0.00000046    0.00002823   -0.00000196
     atom   39 type  6   force =    -0.00000046    0.00002823    0.00000196
     atom   40 type  3   force =    -0.00000100   -0.00000012   -0.00000110
     atom   41 type  3   force =     0.00000100   -0.00000012    0.00000110
     atom   42 type  3   force =    -0.00000044    0.00000213   -0.00000116
     atom   43 type  3   force =     0.00000044    0.00000213    0.00000116
     atom   44 type  2   force =     0.00000000   -0.00003899   -0.00000000

     DFT-D3 dispersion contribution to forces:
     atom    1 type  4   force =    -0.00000000    0.00064352    0.00000000
     atom    2 type  4   force =     0.00000000   -0.00042909    0.00000000
     atom    3 type  5   force =     0.00000000    0.00027383   -0.00000000
     atom    4 type  5   force =     0.00000000    0.00095752   -0.00000000
     atom    5 type  5   force =    -0.00000000   -0.00156253   -0.00000000
     atom    6 type  5   force =    -0.00000000    0.00087035    0.00000000
     atom    7 type  5   force =     0.00000000   -0.00003659   -0.00000000
     atom    8 type  7   force =     0.00001162   -0.00016042   -0.00037422
     atom    9 type  7   force =    -0.00001162   -0.00016042    0.00037422
     atom   10 type  7   force =     0.00006630    0.00008136    0.00028127
     atom   11 type  7   force =    -0.00006630    0.00008136   -0.00028127
     atom   12 type  7   force =     0.00000943    0.00002830   -0.00006264
     atom   13 type  7   force =    -0.00000943    0.00002830    0.00006264
     atom   14 type  1   force =    -0.00008287    0.00012429   -0.00126852
     atom   15 type  1   force =     0.00008287    0.00012429    0.00126852
     atom   16 type  6   force =     0.00001333    0.00004517    0.00043191
     atom   17 type  6   force =    -0.00001333    0.00004517   -0.00043191
     atom   18 type  6   force =    -0.00001358    0.00003822   -0.00033997
     atom   19 type  6   force =     0.00001358    0.00003822    0.00033996
     atom   20 type  6   force =    -0.00004112   -0.00003265    0.00036781
     atom   21 type  6   force =     0.00004112   -0.00003265   -0.00036781
     atom   22 type  6   force =    -0.00004977   -0.00011579    0.00017533
     atom   23 type  6   force =     0.00004977   -0.00011579   -0.00017533
     atom   24 type  6   force =    -0.00018651    0.00099735    0.00015872
     atom   25 type  6   force =     0.00018651    0.00099735   -0.00015872
     atom   26 type  6   force =     0.00082999    0.00006790    0.00015878
     atom   27 type  6   force =    -0.00082999    0.00006790   -0.00015878
     atom   28 type  6   force =     0.00042265   -0.00062689   -0.00011936
     atom   29 type  6   force =    -0.00042265   -0.00062689    0.00011936
     atom   30 type  6   force =    -0.00026682    0.00042484    0.00013195
     atom   31 type  6   force =     0.00026682    0.00042484   -0.00013195
     atom   32 type  6   force =     0.00090637   -0.00042172    0.00036292
     atom   33 type  6   force =    -0.00090637   -0.00042172   -0.00036293
     atom   34 type  6   force =     0.00062194   -0.00047700   -0.00035029
     atom   35 type  6   force =    -0.00062194   -0.00047700    0.00035029
     atom   36 type  6   force =    -0.00013608   -0.00001244   -0.00056535
     atom   37 type  6   force =     0.00013608   -0.00001244    0.00056535
     atom   38 type  6   force =     0.00002704    0.00003486   -0.00053694
     atom   39 type  6   force =    -0.00002704    0.00003486    0.00053694
     atom   40 type  3   force =    -0.00030216    0.00017496   -0.00025483
     atom   41 type  3   force =     0.00030216    0.00017496    0.00025483
     atom   42 type  3   force =     0.00006075   -0.00043042   -0.00023940
     atom   43 type  3   force =    -0.00006075   -0.00043042    0.00023940
     atom   44 type  2   force =     0.00000000   -0.00019684    0.00000000

     Total force =     0.002291     Total SCF correction =     0.000265

     DFT-D3 dispersion Force =     0.004551
     SCF correction compared to forces is large: reduce conv_thr to get better values
     Energy error            =      1.2E-05 Ry
     Gradient error          =      6.9E-04 Ry/Bohr

     bfgs converged in  17 scf cycles and  16 bfgs steps
     (criteria: energy <  1.0E-04 Ry, force <  1.0E-03 Ry/Bohr)

     End of BFGS Geometry Optimization

     Final energy             =   -2631.1993030309 Ry

     File ./temp/phl-fe1-fe4-nspin.bfgs deleted, as requested
Begin final coordinates

ATOMIC_POSITIONS (crystal)
K                0.0000000000        0.4926895273        0.0000000000
K                0.5000000000        0.0045958831        0.0000000000
Mg              -0.0000000000        0.0036066410        0.5000000000
Mg              -0.0000000000        0.3348863581        0.5000000000
Mg              -0.0000000000        0.6620396059        0.5000000000
Mg               0.5000000000        0.8326862601        0.5000000000
Mg               0.5000000000        0.1750727583        0.5000000000
Si               0.0814343023        0.1652664618        0.2233937161
Si               0.9185656837        0.1652664618        0.7766063139
Si               0.9363557539        0.8339187628        0.7707631736
Si               0.0636442461        0.8339187628        0.2292368264
Si               0.5617429283        0.6655422508        0.2265022708
Si               0.4382570717        0.6655422508        0.7734977142
Al               0.4185729388        0.3329072811        0.7752540822
Al               0.5814270612        0.3329072811        0.2247459178
O                0.1257950706        0.1642288825        0.3857187370
O                0.8742048994        0.1642288825        0.6142812920
O                0.8754717241        0.8318664584        0.6098042113
O                0.1245282759        0.8318664584        0.3901957887
O                0.6263205904        0.6668449647        0.3886055240
O                0.3736794096        0.6668449647        0.6113944760
O                0.3651159109        0.3377205872        0.6024656122
O                0.6348840891        0.3377205872        0.3975343878
O                0.3410947420        0.2033851717        0.1660002303
O                0.6589052580        0.2033851717        0.8339997397
O                0.9941632756        0.9972476505        0.1685025533
O                0.0058367244        0.9972476505        0.8314974317
O                0.6846386750        0.7751315518        0.8306616289
O                0.3153613250        0.7751315518        0.1693383711
O                0.8131844143        0.7319729639        0.1681825900
O                0.1868155857        0.7319729639        0.8318174100
O                0.4910390533        0.5080065709        0.1599381542
O                0.5089609167        0.5080065709        0.8400618608
O                0.1460182012        0.2766953970        0.8395318307
O                0.8539818138        0.2766953970        0.1604681693
O                0.1394380201        0.5019975569        0.3959855635
O                0.8605619949        0.5019975569        0.6040144365
O                0.6311468399        0.9998494666        0.3975439525
O                0.3688531601        0.9998494666        0.6024560175
H                0.1288952433        0.4914936739        0.3008156111
H                0.8711047867        0.4914936739        0.6991843889
H                0.5939494173        0.0139446366        0.3022445594
H                0.4060505827        0.0139446366        0.6977554406
Fe               0.5000000000        0.4983774409        0.5000000000
End final coordinates

     Writing all to output data dir ./temp/phl-fe1-fe4-nspin.save/ :
     XML data file, charge density, pseudopotentials, collected wavefunctions

     General routines

     Parallel routines

     PAW routines

   This run was terminated on:  16:25: 7  29Jan2025

   JOB DONE.