     Program PWSCF v.7.3.1 starts on 15Sep2025 at 15:32:13

     Reading input from vc_relax.in

     Current dimensions of program PWSCF are:
     Max number of different atomic species (ntypx) = 10
     Max number of k-points (npk) =  40000
     Max angular momentum in pseudopotentials (lmaxx) =  4
     file Al.pbe-n-kjpaw_psl.1.0.0.UPF: wavefunction(s)  3S 3P renormalized
     file Fe.pbe-spn-kjpaw_psl.1.0.0.UPF: wavefunction(s)  3P 3D renormalized
     file H.pbe-kjpaw_psl.1.0.0.UPF: wavefunction(s)  1S renormalized
     file K.pbe-spn-kjpaw_psl.1.0.0.UPF: wavefunction(s)  3S renormalized
     file Mg.pbe-spnl-kjpaw_psl.1.0.0.UPF: wavefunction(s)  2P renormalized
     file O.pbe-n-kjpaw_psl.1.0.0.UPF: wavefunction(s)  2S 2P renormalized
     file Si.pbe-n-kjpaw_psl.1.0.0.UPF: wavefunction(s)  3S 3P renormalized

     R & G space division:  proc/nbgrp/npool/nimage =       6
     Subspace diagonalization in iterative solution of the eigenvalue problem:
     one sub-group per band group will be used

     Using Slab Decomposition

     bravais-lattice index     =          -12
     lattice parameter (alat)  =      10.0136  a.u.
     unit-cell volume          =    3303.4414 (a.u.)^3
     number of atoms/cell      =           44
     number of atomic types    =            7
     number of electrons       =       262.00
     number of Kohn-Sham states=          157
     kinetic-energy cutoff     =      60.0000  Ry
     charge density cutoff     =     480.0000  Ry
     scf convergence threshold =      1.0E-06
     mixing beta               =       0.7000
     number of iterations used =            8  plain     mixing
     energy convergence thresh.=      1.0E-04
     force convergence thresh. =      1.0E-03
     press convergence thresh. =      5.0E-01
     Exchange-correlation= SLA  PW   PBX  PBC
                           (   1   4   3   4   0   0   0)
     nstep                     =           50

     celldm(1)=  10.013640  celldm(2)=   1.735306  celldm(3)=   1.926511
     celldm(4)=   0.000000  celldm(5)=  -0.177565  celldm(6)=   0.000000

     crystal axes: (cart. coord. in units of alat)
               a(1) = (   1.000000   0.000000   0.000000 )
               a(2) = (   0.000000   1.735306   0.000000 )
               a(3) = (  -0.342081   0.000000   1.895896 )

     reciprocal axes: (cart. coord. in units 2 pi/alat)
               b(1) = (  1.000000 -0.000000  0.180432 )
               b(2) = (  0.000000  0.576267 -0.000000 )
               b(3) = (  0.000000  0.000000  0.527455 )

     PseudoPot. # 1 for Al read from file:
     ./../../../pseudos/Al.pbe-n-kjpaw_psl.1.0.0.UPF
     MD5 check sum: 502b6b27b9c6270cab5dd1084b96fa6d
     Pseudo is Projector augmented-wave + core cor, Zval =  3.0
     Generated using &quot;atomic&quot; code by A. Dal Corso  v.6.3
     Shape of augmentation charge: PSQ
     Using radial grid of 1135 points,  6 beta functions with:
                l(1) =   0
                l(2) =   0
                l(3) =   1
                l(4) =   1
                l(5) =   2
                l(6) =   2
     Q(r) pseudized with 0 coefficients

     PseudoPot. # 2 for Fe read from file:
     ./../../../pseudos/Fe.pbe-spn-kjpaw_psl.1.0.0.UPF
     MD5 check sum: fc81f059e5c5069939230b1155715ae8
     Pseudo is Projector augmented-wave + core cor, Zval = 16.0
     Generated using &quot;atomic&quot; code by A. Dal Corso  v.6.3
     Shape of augmentation charge: PSQ
     Using radial grid of 1191 points,  6 beta functions with:
                l(1) =   0
                l(2) =   0
                l(3) =   1
                l(4) =   1
                l(5) =   2
                l(6) =   2
     Q(r) pseudized with 0 coefficients

     PseudoPot. # 3 for H  read from file:
     ./../../../pseudos/H.pbe-kjpaw_psl.1.0.0.UPF
     MD5 check sum: d81a744832360e4a8af0b0b5b123bc2a
     Pseudo is Projector augmented-wave, Zval =  1.0
     Generated using &quot;atomic&quot; code by A. Dal Corso  v.6.3MaX
     Shape of augmentation charge: PSQ
     Using radial grid of  929 points,  2 beta functions with:
                l(1) =   0
                l(2) =   0
     Q(r) pseudized with 0 coefficients

     PseudoPot. # 4 for K  read from file:
     ./../../../pseudos/K.pbe-spn-kjpaw_psl.1.0.0.UPF
     MD5 check sum: 34cc42130a09071ebe376fd42eb21491
     Pseudo is Projector augmented-wave + core cor, Zval =  9.0
     Generated using &quot;atomic&quot; code by A. Dal Corso  v.6.2.2
     Shape of augmentation charge: PSQ
     Using radial grid of 1165 points,  6 beta functions with:
                l(1) =   0
                l(2) =   0
                l(3) =   1
                l(4) =   1
                l(5) =   2
                l(6) =   2
     Q(r) pseudized with 0 coefficients

     PseudoPot. # 5 for Mg read from file:
     ./../../../pseudos/Mg.pbe-spnl-kjpaw_psl.1.0.0.UPF
     MD5 check sum: fda14e0d92a6a9a5ebed782e5a4b3067
     Pseudo is Projector augmented-wave + core cor, Zval = 10.0
     Generated using &quot;atomic&quot; code by A. Dal Corso  v.6.3
     Shape of augmentation charge: PSQ
     Using radial grid of 1129 points,  4 beta functions with:
                l(1) =   0
                l(2) =   0
                l(3) =   1
                l(4) =   1
     Q(r) pseudized with 0 coefficients

     PseudoPot. # 6 for O  read from file:
     ./../../../pseudos/O.pbe-n-kjpaw_psl.1.0.0.UPF
     MD5 check sum: e99d9cef9b487d1ca56f5b95ecd0fd7a
     Pseudo is Projector augmented-wave + core cor, Zval =  6.0
     Generated using &quot;atomic&quot; code by A. Dal Corso  v.6.3
     Shape of augmentation charge: PSQ
     Using radial grid of 1095 points,  4 beta functions with:
                l(1) =   0
                l(2) =   0
                l(3) =   1
                l(4) =   1
     Q(r) pseudized with 0 coefficients

     PseudoPot. # 7 for Si read from file:
     ./../../../pseudos/Si.pbe-n-kjpaw_psl.1.0.0.UPF
     MD5 check sum: c39c59da582df4a0d9f10159256ea34e
     Pseudo is Projector augmented-wave + core cor, Zval =  4.0
     Generated using &quot;atomic&quot; code by A. Dal Corso  v.6.3
     Shape of augmentation charge: PSQ
     Using radial grid of 1141 points,  6 beta functions with:
                l(1) =   0
                l(2) =   0
                l(3) =   1
                l(4) =   1
                l(5) =   2
                l(6) =   2
     Q(r) pseudized with 0 coefficients

     atomic species   valence    mass     pseudopotential
     Al                3.00    26.98154     Al( 1.00)
     Fe               16.00    55.84500     Fe( 1.00)
     H                 1.00     1.00794     H ( 1.00)
     K                 9.00    39.09830     K ( 1.00)
     Mg               10.00    24.30500     Mg( 1.00)
     O                 6.00    15.99940     O ( 1.00)
     Si                4.00    28.08550     Si( 1.00)

     Starting magnetic structure
     atomic species   magnetization
     Al              0.000
     Fe              0.300
     H               0.000
     K               0.000
     Mg              0.000
     O               0.000
     Si              0.000

      2 Sym. Ops. (no inversion) found

                                    s                        frac. trans.

      isym =  1     identity

 cryst.   s( 1) = (     1          0          0      )
                  (     0          1          0      )
                  (     0          0          1      )

 cart.    s( 1) = (  1.0000000  0.0000000 -0.0000000 )
                  (  0.0000000  1.0000000  0.0000000 )
                  (  0.0000000  0.0000000  1.0000000 )

      isym =  2     180 deg rotation - cart. axis [0,1,0]

[...]

     point group C_2  (2)
     there are  2 classes
     the character table:

       E     C2
A      1.00  1.00
B      1.00 -1.00

     the symmetry operations in each class and the name of the first element:

     E        1
          identity
     C2       2
          180 deg rotation - cart. axis [0,1,0]

   Cartesian axes

     site n.     atom                  positions (alat units)
         1        K      tau(   1) = (   0.0000000   0.8659643   0.0000000  )
         2        K      tau(   2) = (   0.5000000   1.7272549   0.0000000  )
         3        Mg     tau(   3) = (  -0.1710407   0.0112462   0.9479482  )
         4        Mg     tau(   4) = (  -0.1710407   1.1569461   0.9479482  )
         5        Mg     tau(   5) = (   0.3289593   0.8609746   0.9479482  )
         6        Mg     tau(   6) = (   0.3289593   1.4505183   0.9479482  )
         7        Mg     tau(   7) = (   0.3289593   0.2962664   0.9479482  )
         8        Si     tau(   8) = (   0.0174847   0.2840279   0.4178757  )
         9        Si     tau(   9) = (   0.6404339   0.2840279   1.4780208  )
        10        Si     tau(  10) = (   0.6701932   1.4483528   1.4627812  )
        11        Si     tau(  11) = (  -0.0122745   1.4483528   0.4331152  )
        12        Si     tau(  12) = (   0.4876813   1.1561173   0.4303910  )
        13        Si     tau(  13) = (   0.1702373   1.1561173   1.4655054  )
        14        Al     tau(  14) = (   0.1401455   0.5731186   1.4733328  )
        15        Al     tau(  15) = (   0.5177732   0.5731186   0.4225636  )
        16        O      tau(  16) = (   0.0063953   0.2741018   0.7248569  )
        17        O      tau(  17) = (   0.6515233   0.2741018   1.1710396  )
        18        O      tau(  18) = (   0.6650954   1.4488150   1.1577141  )
        19        O      tau(  19) = (  -0.0071767   1.4488150   0.7381823  )
        20        O      tau(  20) = (   0.4943690   1.1621117   0.7369531  )
        21        O      tau(  21) = (   0.1635497   1.1621117   1.1589434  )
        22        O      tau(  22) = (   0.1533600   0.5791129   1.1443447  )
        23        O      tau(  23) = (   0.5045587   0.5791129   0.7515517  )
        24        O      tau(  24) = (   0.2987172   0.3475890   0.3110247  )
        25        O      tau(  25) = (   0.3592015   0.3475890   1.5848717  )
        26        O      tau(  26) = (  -0.0555996   1.7302007   0.3108972  )
        27        O      tau(  27) = (   0.7135183   1.7302007   1.5849993  )
        28        O      tau(  28) = (   0.3999587   1.3406677   1.5760506  )
        29        O      tau(  29) = (   0.2579600   1.3406677   0.3198458  )
        30        O      tau(  30) = (   0.7563447   1.2742714   0.3172441  )
        31        O      tau(  31) = (  -0.0984260   1.2742714   1.5786523  )
        32        O      tau(  32) = (   0.4475899   0.8796099   0.3074359  )
        33        O      tau(  33) = (   0.2103288   0.8796099   1.5884605  )
        34        O      tau(  34) = (  -0.1576645   0.4845104   1.5932192  )
        35        O      tau(  35) = (   0.8155832   0.4845104   0.3026772  )
        36        O      tau(  36) = (   0.0033298   0.8884262   0.7399718  )
        37        O      tau(  37) = (   0.6545889   0.8884262   1.1559247  )
        38        O      tau(  38) = (   0.4986290   1.7343151   0.7518669  )
        39        O      tau(  39) = (   0.1592897   1.7343151   1.1440295  )
        40        H      tau(  40) = (   0.0059044   0.8474743   0.5624143  )
[...]
     The core correction contribution to forces
     atom    1 type  4   force =     0.00000000   -0.00138713    0.00000000
     atom    2 type  4   force =     0.00000000    0.00147679    0.00000000
     atom    3 type  5   force =     0.00000000    0.00019779   -0.00000000
     atom    4 type  5   force =    -0.00000000   -0.00027806    0.00000000
     atom    5 type  5   force =    -0.00000000   -0.00054518   -0.00000000
     atom    6 type  5   force =     0.00000000    0.00031283   -0.00000000
     atom    7 type  5   force =    -0.00000000    0.00015224   -0.00000000
     atom    8 type  7   force =     0.00221166    0.00942255    0.00811384
     atom    9 type  7   force =    -0.00221172    0.00942257   -0.00811371
     atom   10 type  7   force =     0.00026997    0.00292192   -0.01362684
     atom   11 type  7   force =    -0.00026997    0.00292192    0.01362684
     atom   12 type  7   force =    -0.00072898   -0.01085160    0.01055419
     atom   13 type  7   force =     0.00072894   -0.01085160   -0.01055415
     atom   14 type  1   force =    -0.00007438   -0.00187195   -0.00790031
     atom   15 type  1   force =     0.00007441   -0.00187195    0.00790027
     atom   16 type  6   force =    -0.00000457   -0.00061495    0.00638889
     atom   17 type  6   force =     0.00000456   -0.00061495   -0.00638889
     atom   18 type  6   force =    -0.00004734    0.00016399   -0.00706589
     atom   19 type  6   force =     0.00004734    0.00016399    0.00706590
     atom   20 type  6   force =     0.00002910   -0.00010010    0.00684817
     atom   21 type  6   force =    -0.00002912   -0.00010010   -0.00684817
     atom   22 type  6   force =     0.00153576    0.00002415   -0.00258928
     atom   23 type  6   force =    -0.00153575    0.00002414    0.00258926
     atom   24 type  6   force =     0.00456748   -0.00172954   -0.00577294
     atom   25 type  6   force =    -0.00456748   -0.00172953    0.00577292
     atom   26 type  6   force =    -0.00310860    0.00069184   -0.00737374
     atom   27 type  6   force =     0.00310860    0.00069184    0.00737376
     atom   28 type  6   force =    -0.00130086    0.00181065    0.00736676
     atom   29 type  6   force =     0.00130086    0.00181065   -0.00736676
     atom   30 type  6   force =     0.00062422   -0.00165033   -0.00751489
     atom   31 type  6   force =    -0.00062422   -0.00165033    0.00751489
     atom   32 type  6   force =    -0.00211710   -0.00341788   -0.00647955
     atom   33 type  6   force =     0.00211707   -0.00341788    0.00647955
     atom   34 type  6   force =     0.00096170    0.00423909    0.00628389
     atom   35 type  6   force =    -0.00096169    0.00423910   -0.00628389
     atom   36 type  6   force =     0.00024639    0.00298653    0.01082097
     atom   37 type  6   force =    -0.00024641    0.00298654   -0.01082099
     atom   38 type  6   force =     0.00023196   -0.00157687    0.01106754
     atom   39 type  6   force =    -0.00023194   -0.00157687   -0.01106754
     atom   40 type  3   force =     0.00000000    0.00000000    0.00000000
     atom   41 type  3   force =     0.00000000    0.00000000    0.00000000
     atom   42 type  3   force =     0.00000000    0.00000000    0.00000000
     atom   43 type  3   force =     0.00000000    0.00000000    0.00000000
     atom   44 type  2   force =    -0.00000000    0.00330418   -0.00000000
     The Hubbard contrib.    to forces
     atom    1 type  4   force =     0.00000000    0.00000000    0.00000000
     atom    2 type  4   force =     0.00000000    0.00000000    0.00000000
     atom    3 type  5   force =     0.00000000    0.00000000    0.00000000
     atom    4 type  5   force =     0.00000000    0.00000000    0.00000000
     atom    5 type  5   force =     0.00000000    0.00000000    0.00000000
     atom    6 type  5   force =     0.00000000    0.00000000    0.00000000
     atom    7 type  5   force =     0.00000000    0.00000000    0.00000000
     atom    8 type  7   force =     0.00000000    0.00000000    0.00000000
     atom    9 type  7   force =     0.00000000    0.00000000    0.00000000
     atom   10 type  7   force =     0.00000000    0.00000000    0.00000000
     atom   11 type  7   force =     0.00000000    0.00000000    0.00000000
     atom   12 type  7   force =     0.00000000    0.00000000    0.00000000
     atom   13 type  7   force =     0.00000000    0.00000000    0.00000000
     atom   14 type  1   force =     0.00000000    0.00000000    0.00000000
     atom   15 type  1   force =     0.00000000    0.00000000    0.00000000
     atom   16 type  6   force =     0.00000000    0.00000000    0.00000000
     atom   17 type  6   force =     0.00000000    0.00000000    0.00000000
     atom   18 type  6   force =     0.00000000    0.00000000    0.00000000
     atom   19 type  6   force =     0.00000000    0.00000000    0.00000000
     atom   20 type  6   force =     0.00000000    0.00000000    0.00000000
     atom   21 type  6   force =     0.00000000    0.00000000    0.00000000
     atom   22 type  6   force =     0.00000000    0.00000000    0.00000000
     atom   23 type  6   force =     0.00000000    0.00000000    0.00000000
     atom   24 type  6   force =     0.00000000    0.00000000    0.00000000
     atom   25 type  6   force =     0.00000000    0.00000000    0.00000000
     atom   26 type  6   force =     0.00000000    0.00000000    0.00000000
     atom   27 type  6   force =     0.00000000    0.00000000    0.00000000
     atom   28 type  6   force =     0.00000000    0.00000000    0.00000000
     atom   29 type  6   force =     0.00000000    0.00000000    0.00000000
     atom   30 type  6   force =     0.00000000    0.00000000    0.00000000
     atom   31 type  6   force =     0.00000000    0.00000000    0.00000000
     atom   32 type  6   force =     0.00000000    0.00000000    0.00000000
     atom   33 type  6   force =     0.00000000    0.00000000    0.00000000
     atom   34 type  6   force =     0.00000000    0.00000000    0.00000000
     atom   35 type  6   force =     0.00000000    0.00000000    0.00000000
     atom   36 type  6   force =     0.00000000    0.00000000    0.00000000
     atom   37 type  6   force =     0.00000000    0.00000000    0.00000000
     atom   38 type  6   force =     0.00000000    0.00000000    0.00000000
     atom   39 type  6   force =     0.00000000    0.00000000    0.00000000
     atom   40 type  3   force =     0.00000000    0.00000000    0.00000000
     atom   41 type  3   force =     0.00000000    0.00000000    0.00000000
     atom   42 type  3   force =     0.00000000    0.00000000    0.00000000
     atom   43 type  3   force =     0.00000000    0.00000000    0.00000000
     atom   44 type  2   force =     0.00000000    0.00000000    0.00000000
     The SCF correction term to forces
     atom    1 type  4   force =     0.00000000   -0.00000509   -0.00000000
     atom    2 type  4   force =    -0.00000000    0.00000373   -0.00000000
     atom    3 type  5   force =     0.00000000   -0.00000933   -0.00000000
     atom    4 type  5   force =     0.00000000    0.00000187    0.00000000
     atom    5 type  5   force =    -0.00000000    0.00000007    0.00000000
     atom    6 type  5   force =    -0.00000000   -0.00000412    0.00000000
     atom    7 type  5   force =    -0.00000000    0.00000686    0.00000000
     atom    8 type  7   force =     0.00000129    0.00000444   -0.00000759
     atom    9 type  7   force =    -0.00000129    0.00000444    0.00000759
     atom   10 type  7   force =    -0.00000005    0.00000113   -0.00000460
     atom   11 type  7   force =     0.00000005    0.00000113    0.00000460
     atom   12 type  7   force =    -0.00000113   -0.00000448    0.00000318
     atom   13 type  7   force =     0.00000113   -0.00000448   -0.00000318
     atom   14 type  1   force =    -0.00000029   -0.00000026    0.00000196
     atom   15 type  1   force =     0.00000029   -0.00000026   -0.00000196
     atom   16 type  6   force =    -0.00000295   -0.00000092    0.00000207
     atom   17 type  6   force =     0.00000295   -0.00000092   -0.00000207
     atom   18 type  6   force =     0.00000266   -0.00000227    0.00000360
     atom   19 type  6   force =    -0.00000266   -0.00000227   -0.00000360
     atom   20 type  6   force =     0.00000269    0.00000427    0.00000543
     atom   21 type  6   force =    -0.00000269    0.00000427   -0.00000543
     atom   22 type  6   force =    -0.00000045    0.00000180   -0.00001430
     atom   23 type  6   force =     0.00000045    0.00000180    0.00001430
     atom   24 type  6   force =    -0.00000719   -0.00000974   -0.00002044
     atom   25 type  6   force =     0.00000719   -0.00000974    0.00002044
     atom   26 type  6   force =     0.00000193   -0.00000786   -0.00000690
     atom   27 type  6   force =    -0.00000193   -0.00000786    0.00000690
     atom   28 type  6   force =     0.00000442    0.00000269    0.00000301
     atom   29 type  6   force =    -0.00000442    0.00000269   -0.00000301
     atom   30 type  6   force =     0.00000375    0.00000604   -0.00000096
     atom   31 type  6   force =    -0.00000375    0.00000604    0.00000096
     atom   32 type  6   force =    -0.00000360    0.00001093   -0.00001755
     atom   33 type  6   force =     0.00000360    0.00001093    0.00001755
     atom   34 type  6   force =    -0.00001163   -0.00000094    0.00002066
     atom   35 type  6   force =     0.00001163   -0.00000094   -0.00002066
     atom   36 type  6   force =    -0.00000246    0.00000396    0.00000339
     atom   37 type  6   force =     0.00000246    0.00000396   -0.00000339
     atom   38 type  6   force =     0.00000321   -0.00000680   -0.00000246
     atom   39 type  6   force =    -0.00000321   -0.00000680    0.00000246
     atom   40 type  3   force =    -0.00000013    0.00000092    0.00000231
     atom   41 type  3   force =     0.00000013    0.00000092   -0.00000231
     atom   42 type  3   force =     0.00000029   -0.00000146    0.00000432
     atom   43 type  3   force =    -0.00000029   -0.00000146   -0.00000432
     atom   44 type  2   force =     0.00000000    0.00000793   -0.00000000

     DFT-D3 dispersion contribution to forces:
     atom    1 type  4   force =    -0.00000000    0.00103743   -0.00000000
     atom    2 type  4   force =    -0.00000000   -0.00055739   -0.00000000
     atom    3 type  5   force =     0.00000000    0.00045339    0.00000000
     atom    4 type  5   force =    -0.00000000   -0.00135239    0.00000000
     atom    5 type  5   force =     0.00000000   -0.00049797    0.00000000
     atom    6 type  5   force =     0.00000000    0.00118336   -0.00000000
     atom    7 type  5   force =     0.00000000   -0.00032567   -0.00000000
     atom    8 type  7   force =    -0.00001262   -0.00006067   -0.00012150
     atom    9 type  7   force =     0.00001262   -0.00006067    0.00012150
     atom   10 type  7   force =     0.00004127    0.00001477    0.00024583
     atom   11 type  7   force =    -0.00004127    0.00001477   -0.00024583
     atom   12 type  7   force =     0.00002291    0.00026277   -0.00024641
     atom   13 type  7   force =    -0.00002291    0.00026277    0.00024641
     atom   14 type  1   force =    -0.00013051    0.00003095   -0.00094046
     atom   15 type  1   force =     0.00013051    0.00003095    0.00094046
     atom   16 type  6   force =    -0.00005099    0.00012419    0.00051008
     atom   17 type  6   force =     0.00005099    0.00012419   -0.00051009
     atom   18 type  6   force =     0.00000080    0.00000543   -0.00037842
     atom   19 type  6   force =    -0.00000080    0.00000543    0.00037842
     atom   20 type  6   force =    -0.00001829   -0.00000254    0.00038153
     atom   21 type  6   force =     0.00001829   -0.00000254   -0.00038153
     atom   22 type  6   force =    -0.00008007   -0.00000999    0.00001374
     atom   23 type  6   force =     0.00008007   -0.00000999   -0.00001374
     atom   24 type  6   force =    -0.00019396    0.00107693    0.00023370
     atom   25 type  6   force =     0.00019396    0.00107693   -0.00023370
     atom   26 type  6   force =     0.00080633    0.00006562    0.00021869
     atom   27 type  6   force =    -0.00080633    0.00006562   -0.00021869
     atom   28 type  6   force =     0.00032956   -0.00047149   -0.00004403
     atom   29 type  6   force =    -0.00032956   -0.00047149    0.00004403
     atom   30 type  6   force =    -0.00014980    0.00024121    0.00002618
     atom   31 type  6   force =     0.00014980    0.00024121   -0.00002618
     atom   32 type  6   force =     0.00087473   -0.00042864    0.00040313
     atom   33 type  6   force =    -0.00087473   -0.00042864   -0.00040313
     atom   34 type  6   force =     0.00070000   -0.00066079   -0.00039642
     atom   35 type  6   force =    -0.00070000   -0.00066079    0.00039642
     atom   36 type  6   force =    -0.00011309   -0.00017165   -0.00035819
     atom   37 type  6   force =     0.00011309   -0.00017165    0.00035819
     atom   38 type  6   force =     0.00001774   -0.00000466   -0.00051613
     atom   39 type  6   force =    -0.00001774   -0.00000466    0.00051613
     atom   40 type  3   force =    -0.00008257    0.00018062   -0.00009818
     atom   41 type  3   force =     0.00008257    0.00018062    0.00009818
     atom   42 type  3   force =     0.00012134   -0.00049080   -0.00027168
     atom   43 type  3   force =    -0.00012134   -0.00049080    0.00027168
     atom   44 type  2   force =    -0.00000000    0.00065669    0.00000000

     Total force =     0.002523     Total SCF correction =     0.000070

     DFT-D3 dispersion Force =     0.004443

     Computing stress (Cartesian axis) and pressure

     negative rho (up, down):  0.000E+00 3.809E-04
          total   stress  (Ry/bohr**3)                   (kbar)     P=       -0.63
  -0.00000294   0.00000000   0.00000005           -0.43        0.00        0.01
   0.00000000  -0.00000407   0.00000000            0.00       -0.60        0.00
   0.00000005   0.00000000  -0.00000576            0.01        0.00       -0.85

     kinetic stress (kbar)  20080.28      0.00    -54.78
                                0.00  20167.98      0.00
                              -54.78      0.00  19862.22

     local   stress (kbar) -40660.50      0.00   -300.18
                                0.00 -39860.52     -0.00
                             -300.18     -0.00  19213.00

     nonloc. stress (kbar)   3807.66      0.00      7.06
                                0.00   3796.90      0.00
                                7.06      0.00   3785.38

     hartree stress (kbar)  22881.86      0.00    110.55
                                0.00  22557.61     -0.00
                              110.55     -0.00  -6361.59

     exc-cor stress (kbar)  -2822.73     -0.00     -0.03
                               -0.00  -2822.60     -0.00
                               -0.03     -0.00  -2819.58

     corecor stress (kbar)  -1858.82      0.00      0.49
                                0.00  -1859.55      0.00
                                0.49      0.00  -1860.80

     ewald   stress (kbar)  -1413.52     -0.00    236.92
                               -0.00  -1965.69      0.00
                              236.92      0.00 -31808.50

     hubbard stress (kbar)      0.00      0.00      0.00
                                0.00      0.00      0.00
                                0.00      0.00      0.00

     DFT-D   stress (kbar)    -14.65      0.00     -0.03
                                0.00    -14.72     -0.00
                               -0.03     -0.00    -10.98

     XDM     stress (kbar)      0.00      0.00      0.00
                                0.00      0.00      0.00
                                0.00      0.00      0.00

     dft-nl  stress (kbar)      0.00      0.00      0.00
                                0.00      0.00      0.00
                                0.00      0.00      0.00

     TS-vdW  stress (kbar)      0.00      0.00      0.00
                                0.00      0.00      0.00
                                0.00      0.00      0.00

     MDB     stress (kbar)      0.00      0.00      0.00
                                0.00      0.00      0.00
                                0.00      0.00      0.00

     3D-RISM stress (kbar)      0.00      0.00      0.00
                                0.00      0.00      0.00
                                0.00      0.00      0.00

     Writing all to output data dir ./temp/phl-fe1-fe2.save/ :
     XML data file, charge density, pseudopotentials, collected wavefunctions

     General routines

     Parallel routines

     PAW routines

   This run was terminated on:   7:20:19  17Sep2025

   JOB DONE.