     Program PWSCF v.7.3.1 starts on 15Jan2025 at  1: 6:50

     Reading input from vc_relax.in

     Current dimensions of program PWSCF are:
     Max number of different atomic species (ntypx) = 10
     Max number of k-points (npk) =  40000
     Max angular momentum in pseudopotentials (lmaxx) =  4
     file Al.pbe-n-kjpaw_psl.1.0.0.UPF: wavefunction(s)  3S 3P renormalized
     file Fe.pbe-spn-kjpaw_psl.1.0.0.UPF: wavefunction(s)  3P 3D renormalized
     file H.pbe-kjpaw_psl.1.0.0.UPF: wavefunction(s)  1S renormalized
     file K.pbe-spn-kjpaw_psl.1.0.0.UPF: wavefunction(s)  3S renormalized
     file Mg.pbe-spnl-kjpaw_psl.1.0.0.UPF: wavefunction(s)  2P renormalized
     file O.pbe-n-kjpaw_psl.1.0.0.UPF: wavefunction(s)  2S 2P renormalized
     file Si.pbe-n-kjpaw_psl.1.0.0.UPF: wavefunction(s)  3S 3P renormalized

     R & G space division:  proc/nbgrp/npool/nimage =       6
     Subspace diagonalization in iterative solution of the eigenvalue problem:
     one sub-group per band group will be used

     Using Slab Decomposition

     bravais-lattice index     =          -12
     lattice parameter (alat)  =      10.0136  a.u.
     unit-cell volume          =    3303.4414 (a.u.)^3
     number of atoms/cell      =           44
     number of atomic types    =            7
     number of electrons       =       262.00
     number of Kohn-Sham states=          157
     kinetic-energy cutoff     =      60.0000  Ry
     charge density cutoff     =     480.0000  Ry
     scf convergence threshold =      1.0E-06
     mixing beta               =       0.7000
     number of iterations used =            8  plain     mixing
     energy convergence thresh.=      1.0E-04
     force convergence thresh. =      1.0E-03
     press convergence thresh. =      5.0E-01
     Exchange-correlation= SLA  PW   PBX  PBC
                           (   1   4   3   4   0   0   0)
     nstep                     =           50

     celldm(1)=  10.013640  celldm(2)=   1.735306  celldm(3)=   1.926511
     celldm(4)=   0.000000  celldm(5)=  -0.177565  celldm(6)=   0.000000

     crystal axes: (cart. coord. in units of alat)
               a(1) = (   1.000000   0.000000   0.000000 )
               a(2) = (   0.000000   1.735306   0.000000 )
               a(3) = (  -0.342081   0.000000   1.895896 )

     reciprocal axes: (cart. coord. in units 2 pi/alat)
               b(1) = (  1.000000 -0.000000  0.180432 )
               b(2) = (  0.000000  0.576267 -0.000000 )
               b(3) = (  0.000000  0.000000  0.527455 )

     PseudoPot. # 1 for Al read from file:
     ./../../../pseudos/Al.pbe-n-kjpaw_psl.1.0.0.UPF
     MD5 check sum: 502b6b27b9c6270cab5dd1084b96fa6d
     Pseudo is Projector augmented-wave + core cor, Zval =  3.0
     Generated using &quot;atomic&quot; code by A. Dal Corso  v.6.3
     Shape of augmentation charge: PSQ
     Using radial grid of 1135 points,  6 beta functions with:
                l(1) =   0
                l(2) =   0
                l(3) =   1
                l(4) =   1
                l(5) =   2
                l(6) =   2
     Q(r) pseudized with 0 coefficients

     PseudoPot. # 2 for Fe read from file:
     ./../../../pseudos/Fe.pbe-spn-kjpaw_psl.1.0.0.UPF
     MD5 check sum: fc81f059e5c5069939230b1155715ae8
     Pseudo is Projector augmented-wave + core cor, Zval = 16.0
     Generated using &quot;atomic&quot; code by A. Dal Corso  v.6.3
     Shape of augmentation charge: PSQ
     Using radial grid of 1191 points,  6 beta functions with:
                l(1) =   0
                l(2) =   0
                l(3) =   1
                l(4) =   1
                l(5) =   2
                l(6) =   2
     Q(r) pseudized with 0 coefficients

     PseudoPot. # 3 for H  read from file:
     ./../../../pseudos/H.pbe-kjpaw_psl.1.0.0.UPF
     MD5 check sum: d81a744832360e4a8af0b0b5b123bc2a
     Pseudo is Projector augmented-wave, Zval =  1.0
     Generated using &quot;atomic&quot; code by A. Dal Corso  v.6.3MaX
     Shape of augmentation charge: PSQ
     Using radial grid of  929 points,  2 beta functions with:
                l(1) =   0
                l(2) =   0
     Q(r) pseudized with 0 coefficients

     PseudoPot. # 4 for K  read from file:
     ./../../../pseudos/K.pbe-spn-kjpaw_psl.1.0.0.UPF
     MD5 check sum: 34cc42130a09071ebe376fd42eb21491
     Pseudo is Projector augmented-wave + core cor, Zval =  9.0
     Generated using &quot;atomic&quot; code by A. Dal Corso  v.6.2.2
     Shape of augmentation charge: PSQ
     Using radial grid of 1165 points,  6 beta functions with:
                l(1) =   0
                l(2) =   0
                l(3) =   1
                l(4) =   1
                l(5) =   2
                l(6) =   2
     Q(r) pseudized with 0 coefficients

     PseudoPot. # 5 for Mg read from file:
     ./../../../pseudos/Mg.pbe-spnl-kjpaw_psl.1.0.0.UPF
     MD5 check sum: fda14e0d92a6a9a5ebed782e5a4b3067
     Pseudo is Projector augmented-wave + core cor, Zval = 10.0
     Generated using &quot;atomic&quot; code by A. Dal Corso  v.6.3
     Shape of augmentation charge: PSQ
     Using radial grid of 1129 points,  4 beta functions with:
                l(1) =   0
                l(2) =   0
                l(3) =   1
                l(4) =   1
     Q(r) pseudized with 0 coefficients

     PseudoPot. # 6 for O  read from file:
     ./../../../pseudos/O.pbe-n-kjpaw_psl.1.0.0.UPF
     MD5 check sum: e99d9cef9b487d1ca56f5b95ecd0fd7a
     Pseudo is Projector augmented-wave + core cor, Zval =  6.0
     Generated using &quot;atomic&quot; code by A. Dal Corso  v.6.3
     Shape of augmentation charge: PSQ
     Using radial grid of 1095 points,  4 beta functions with:
                l(1) =   0
                l(2) =   0
                l(3) =   1
                l(4) =   1
     Q(r) pseudized with 0 coefficients

     PseudoPot. # 7 for Si read from file:
     ./../../../pseudos/Si.pbe-n-kjpaw_psl.1.0.0.UPF
     MD5 check sum: c39c59da582df4a0d9f10159256ea34e
     Pseudo is Projector augmented-wave + core cor, Zval =  4.0
     Generated using &quot;atomic&quot; code by A. Dal Corso  v.6.3
     Shape of augmentation charge: PSQ
     Using radial grid of 1141 points,  6 beta functions with:
                l(1) =   0
                l(2) =   0
                l(3) =   1
                l(4) =   1
                l(5) =   2
                l(6) =   2
     Q(r) pseudized with 0 coefficients

     atomic species   valence    mass     pseudopotential
     Al                3.00    26.98154     Al( 1.00)
     Fe               16.00    55.84500     Fe( 1.00)
     H                 1.00     1.00794     H ( 1.00)
     K                 9.00    39.09830     K ( 1.00)
     Mg               10.00    24.30500     Mg( 1.00)
     O                 6.00    15.99940     O ( 1.00)
     Si                4.00    28.08550     Si( 1.00)

     Starting magnetic structure
     atomic species   magnetization
     Al              0.000
     Fe              0.300
     H               0.000
     K               0.000
     Mg              0.000
     O               0.000
     Si              0.000

      2 Sym. Ops. (no inversion) found

                                    s                        frac. trans.

      isym =  1     identity

 cryst.   s( 1) = (     1          0          0      )
                  (     0          1          0      )
                  (     0          0          1      )

 cart.    s( 1) = (  1.0000000  0.0000000 -0.0000000 )
                  (  0.0000000  1.0000000  0.0000000 )
                  (  0.0000000  0.0000000  1.0000000 )

      isym =  2     180 deg rotation - cart. axis [0,1,0]

[...]

     point group C_2  (2)
     there are  2 classes
     the character table:

       E     C2
A      1.00  1.00
B      1.00 -1.00

     the symmetry operations in each class and the name of the first element:

     E        1
          identity
     C2       2
          180 deg rotation - cart. axis [0,1,0]

   Cartesian axes

     site n.     atom                  positions (alat units)
         1        K      tau(   1) = (   0.0000000   0.8598077   0.0000000  )
         2        K      tau(   2) = (   0.5000000   0.0043668   0.0000000  )
         3        Mg     tau(   3) = (  -0.1710407   0.0076791   0.9479482  )
         4        Mg     tau(   4) = (  -0.1710407   0.5783231   0.9479482  )
         5        Mg     tau(   5) = (  -0.1710407   1.1545860   0.9479482  )
         6        Mg     tau(   6) = (   0.3289593   0.8590031   0.9479482  )
         7        Mg     tau(   7) = (   0.3289593   1.4451986   0.9479482  )
         8        Si     tau(   8) = (   0.0039965   0.2858686   0.4185352  )
         9        Si     tau(   9) = (   0.6539221   0.2858686   1.4773612  )
        10        Si     tau(  10) = (   0.6713238   1.4475106   1.4634320  )
        11        Si     tau(  11) = (  -0.0134051   1.4475106   0.4324643  )
        12        Si     tau(  12) = (   0.4858593   1.1561739   0.4283342  )
        13        Si     tau(  13) = (   0.1720594   1.1561739   1.4675622  )
        14        Al     tau(  14) = (   0.1510599   0.5744342   1.4735571  )
        15        Al     tau(  15) = (   0.5068587   0.5744342   0.4223392  )
        16        O      tau(  16) = (  -0.0176263   0.2844768   0.7255972  )
        17        O      tau(  17) = (   0.6755449   0.2844768   1.1702992  )
        18        O      tau(  18) = (   0.6656058   1.4459498   1.1579710  )
        19        O      tau(  19) = (  -0.0076871   1.4459498   0.7379255  )
        20        O      tau(  20) = (   0.4922717   1.1598425   0.7351438  )
        21        O      tau(  21) = (   0.1656470   1.1598425   1.1607526  )
        22        O      tau(  22) = (   0.1527565   0.5847988   1.1461901  )
        23        O      tau(  23) = (   0.5051622   0.5847988   0.7497063  )
        24        O      tau(  24) = (   0.2856841   0.3496439   0.3148955  )
        25        O      tau(  25) = (   0.3722346   0.3496439   1.5810008  )
        26        O      tau(  26) = (   0.9377301   1.7293492   0.3141948  )
        27        O      tau(  27) = (  -0.2798114   1.7293492   1.5817016  )
        28        O      tau(  28) = (   0.3992122   1.3449275   1.5770283  )
        29        O      tau(  29) = (   0.2587065   1.3449275   0.3188681  )
        30        O      tau(  30) = (   0.7580252   1.2688640   0.3174384  )
        31        O      tau(  31) = (  -0.1001065   1.2688640   1.5784580  )
        32        O      tau(  32) = (   0.4391389   0.8811634   0.3045157  )
        33        O      tau(  33) = (   0.2187798   0.8811634   1.5913807  )
        34        O      tau(  34) = (  -0.1426817   0.4800403   1.6003568  )
        35        O      tau(  35) = (   0.8006004   0.4800403   0.2955396  )
        36        O      tau(  36) = (  -0.0041670   0.8752553   0.7461898  )
        37        O      tau(  37) = (   0.6620857   0.8752553   1.1497065  )
        38        O      tau(  38) = (   0.4980971   1.7259068   0.7508455  )
        39        O      tau(  39) = (   0.1598215   1.7259068   1.1450509  )
        40        H      tau(  40) = (  -0.0033200   0.8598643   0.5646772  )
[...]
     The core correction contribution to forces
     atom    1 type  4   force =    -0.00000000   -0.00143748    0.00000000
     atom    2 type  4   force =     0.00000000    0.00151730   -0.00000000
     atom    3 type  5   force =     0.00000000    0.00026353   -0.00000000
     atom    4 type  5   force =    -0.00000000    0.00024646   -0.00000000
     atom    5 type  5   force =     0.00000000   -0.00039525   -0.00000000
     atom    6 type  5   force =     0.00000000   -0.00070643   -0.00000000
     atom    7 type  5   force =    -0.00000000    0.00028262    0.00000000
     atom    8 type  7   force =     0.00141169    0.01049107    0.00676275
     atom    9 type  7   force =    -0.00141175    0.01049106   -0.00676275
     atom   10 type  7   force =     0.00006554    0.00325607   -0.01357633
     atom   11 type  7   force =    -0.00006555    0.00325607    0.01357624
     atom   12 type  7   force =    -0.00131439   -0.01167860    0.01070106
     atom   13 type  7   force =     0.00131442   -0.01167860   -0.01070106
     atom   14 type  1   force =    -0.00052480   -0.00176354   -0.00917771
     atom   15 type  1   force =     0.00052478   -0.00176354    0.00917765
     atom   16 type  6   force =    -0.00114566    0.00024343    0.00629819
     atom   17 type  6   force =     0.00114566    0.00024343   -0.00629819
     atom   18 type  6   force =    -0.00012980    0.00010820   -0.00701335
     atom   19 type  6   force =     0.00012981    0.00010820    0.00701336
     atom   20 type  6   force =     0.00016742   -0.00020323    0.00677918
     atom   21 type  6   force =    -0.00016741   -0.00020323   -0.00677918
     atom   22 type  6   force =    -0.00057011    0.00115853   -0.00270850
     atom   23 type  6   force =     0.00057010    0.00115853    0.00270848
     atom   24 type  6   force =     0.00455521   -0.00164213   -0.00565603
     atom   25 type  6   force =    -0.00455521   -0.00164213    0.00565602
     atom   26 type  6   force =    -0.00304096    0.00071894   -0.00720780
     atom   27 type  6   force =     0.00304097    0.00071894    0.00720781
     atom   28 type  6   force =    -0.00142602    0.00203789    0.00728885
     atom   29 type  6   force =     0.00142602    0.00203790   -0.00728887
     atom   30 type  6   force =     0.00078498   -0.00191273   -0.00741211
     atom   31 type  6   force =    -0.00078498   -0.00191274    0.00741211
     atom   32 type  6   force =    -0.00222675   -0.00345375   -0.00649425
     atom   33 type  6   force =     0.00222673   -0.00345375    0.00649426
     atom   34 type  6   force =     0.00120610    0.00392522    0.00658208
     atom   35 type  6   force =    -0.00120609    0.00392522   -0.00658210
     atom   36 type  6   force =    -0.00004464    0.00041496    0.01141648
     atom   37 type  6   force =     0.00004465    0.00041495   -0.01141645
     atom   38 type  6   force =     0.00122704   -0.00311175    0.01060957
     atom   39 type  6   force =    -0.00122706   -0.00311175   -0.01060957
     atom   40 type  3   force =     0.00000000    0.00000000    0.00000000
     atom   41 type  3   force =     0.00000000    0.00000000    0.00000000
     atom   42 type  3   force =     0.00000000    0.00000000    0.00000000
     atom   43 type  3   force =     0.00000000    0.00000000    0.00000000
     atom   44 type  2   force =    -0.00000000    0.00419919    0.00000000
     The Hubbard contrib.    to forces
     atom    1 type  4   force =     0.00000000    0.00000000    0.00000000
     atom    2 type  4   force =     0.00000000    0.00000000    0.00000000
     atom    3 type  5   force =     0.00000000    0.00000000    0.00000000
     atom    4 type  5   force =     0.00000000    0.00000000    0.00000000
     atom    5 type  5   force =     0.00000000    0.00000000    0.00000000
     atom    6 type  5   force =     0.00000000    0.00000000    0.00000000
     atom    7 type  5   force =     0.00000000    0.00000000    0.00000000
     atom    8 type  7   force =     0.00000000    0.00000000    0.00000000
     atom    9 type  7   force =     0.00000000    0.00000000    0.00000000
     atom   10 type  7   force =     0.00000000    0.00000000    0.00000000
     atom   11 type  7   force =     0.00000000    0.00000000    0.00000000
     atom   12 type  7   force =     0.00000000    0.00000000    0.00000000
     atom   13 type  7   force =     0.00000000    0.00000000    0.00000000
     atom   14 type  1   force =     0.00000000    0.00000000    0.00000000
     atom   15 type  1   force =     0.00000000    0.00000000    0.00000000
     atom   16 type  6   force =     0.00000000    0.00000000    0.00000000
     atom   17 type  6   force =     0.00000000    0.00000000    0.00000000
     atom   18 type  6   force =     0.00000000    0.00000000    0.00000000
     atom   19 type  6   force =     0.00000000    0.00000000    0.00000000
     atom   20 type  6   force =     0.00000000    0.00000000    0.00000000
     atom   21 type  6   force =     0.00000000    0.00000000    0.00000000
     atom   22 type  6   force =     0.00000000    0.00000000    0.00000000
     atom   23 type  6   force =     0.00000000    0.00000000    0.00000000
     atom   24 type  6   force =     0.00000000    0.00000000    0.00000000
     atom   25 type  6   force =     0.00000000    0.00000000    0.00000000
     atom   26 type  6   force =     0.00000000    0.00000000    0.00000000
     atom   27 type  6   force =     0.00000000    0.00000000    0.00000000
     atom   28 type  6   force =     0.00000000    0.00000000    0.00000000
     atom   29 type  6   force =     0.00000000    0.00000000    0.00000000
     atom   30 type  6   force =     0.00000000    0.00000000    0.00000000
     atom   31 type  6   force =     0.00000000    0.00000000    0.00000000
     atom   32 type  6   force =     0.00000000    0.00000000    0.00000000
     atom   33 type  6   force =     0.00000000    0.00000000    0.00000000
     atom   34 type  6   force =     0.00000000    0.00000000    0.00000000
     atom   35 type  6   force =     0.00000000    0.00000000    0.00000000
     atom   36 type  6   force =     0.00000000    0.00000000    0.00000000
     atom   37 type  6   force =     0.00000000    0.00000000    0.00000000
     atom   38 type  6   force =     0.00000000    0.00000000    0.00000000
     atom   39 type  6   force =     0.00000000    0.00000000    0.00000000
     atom   40 type  3   force =     0.00000000    0.00000000    0.00000000
     atom   41 type  3   force =     0.00000000    0.00000000    0.00000000
     atom   42 type  3   force =     0.00000000    0.00000000    0.00000000
     atom   43 type  3   force =     0.00000000    0.00000000    0.00000000
     atom   44 type  2   force =     0.00000000    0.00000000    0.00000000
     The SCF correction term to forces
     atom    1 type  4   force =    -0.00000000   -0.00000430   -0.00000000
     atom    2 type  4   force =     0.00000000    0.00000814   -0.00000000
     atom    3 type  5   force =    -0.00000000    0.00002345   -0.00000000
     atom    4 type  5   force =    -0.00000000   -0.00001245   -0.00000000
     atom    5 type  5   force =    -0.00000000   -0.00001755    0.00000000
     atom    6 type  5   force =     0.00000000   -0.00001753    0.00000000
     atom    7 type  5   force =     0.00000000    0.00000930    0.00000000
     atom    8 type  7   force =     0.00000324   -0.00000124    0.00000334
     atom    9 type  7   force =    -0.00000324   -0.00000124   -0.00000334
     atom   10 type  7   force =     0.00000365   -0.00000010    0.00000772
     atom   11 type  7   force =    -0.00000365   -0.00000010   -0.00000772
     atom   12 type  7   force =     0.00000374   -0.00000149    0.00000106
     atom   13 type  7   force =    -0.00000374   -0.00000149   -0.00000106
     atom   14 type  1   force =     0.00000235   -0.00000038   -0.00000331
     atom   15 type  1   force =    -0.00000235   -0.00000038    0.00000331
     atom   16 type  6   force =     0.00000987    0.00000414    0.00000672
     atom   17 type  6   force =    -0.00000987    0.00000414   -0.00000672
     atom   18 type  6   force =    -0.00000271    0.00000222    0.00000326
     atom   19 type  6   force =     0.00000271    0.00000222   -0.00000326
     atom   20 type  6   force =    -0.00000141   -0.00000697   -0.00000488
     atom   21 type  6   force =     0.00000141   -0.00000697    0.00000488
     atom   22 type  6   force =     0.00001077   -0.00001067   -0.00001603
     atom   23 type  6   force =    -0.00001077   -0.00001067    0.00001603
     atom   24 type  6   force =     0.00000164    0.00000173   -0.00000316
     atom   25 type  6   force =    -0.00000164    0.00000173    0.00000316
     atom   26 type  6   force =    -0.00000084    0.00000727   -0.00000314
     atom   27 type  6   force =     0.00000084    0.00000727    0.00000314
     atom   28 type  6   force =    -0.00000375   -0.00000415    0.00000011
     atom   29 type  6   force =     0.00000375   -0.00000415   -0.00000011
     atom   30 type  6   force =    -0.00000205   -0.00000763   -0.00000496
     atom   31 type  6   force =     0.00000205   -0.00000763    0.00000496
     atom   32 type  6   force =    -0.00000084   -0.00000089   -0.00000016
     atom   33 type  6   force =     0.00000084   -0.00000089    0.00000016
     atom   34 type  6   force =    -0.00000136    0.00000186    0.00000224
     atom   35 type  6   force =     0.00000136    0.00000186   -0.00000224
     atom   36 type  6   force =     0.00000291   -0.00000528   -0.00000500
     atom   37 type  6   force =    -0.00000291   -0.00000528    0.00000500
     atom   38 type  6   force =    -0.00000708    0.00001178    0.00000565
     atom   39 type  6   force =     0.00000708    0.00001178   -0.00000565
     atom   40 type  3   force =     0.00000028   -0.00000042   -0.00000150
     atom   41 type  3   force =    -0.00000028   -0.00000042    0.00000150
     atom   42 type  3   force =    -0.00000046    0.00000086    0.00000185
     atom   43 type  3   force =     0.00000046    0.00000086   -0.00000185
     atom   44 type  2   force =     0.00000000    0.00002615    0.00000000

     DFT-D3 dispersion contribution to forces:
     atom    1 type  4   force =    -0.00000000    0.00110699    0.00000000
     atom    2 type  4   force =     0.00000000   -0.00112214   -0.00000000
     atom    3 type  5   force =    -0.00000000    0.00039508   -0.00000000
     atom    4 type  5   force =     0.00000000    0.00066815   -0.00000000
     atom    5 type  5   force =     0.00000000   -0.00112810   -0.00000000
     atom    6 type  5   force =    -0.00000000   -0.00051203    0.00000000
     atom    7 type  5   force =     0.00000000    0.00110350   -0.00000000
     atom    8 type  7   force =     0.00015737   -0.00007513   -0.00014905
     atom    9 type  7   force =    -0.00015737   -0.00007513    0.00014905
     atom   10 type  7   force =     0.00007850   -0.00003427    0.00024385
     atom   11 type  7   force =    -0.00007850   -0.00003427   -0.00024385
     atom   12 type  7   force =    -0.00001366    0.00017129   -0.00021159
     atom   13 type  7   force =     0.00001366    0.00017129    0.00021159
     atom   14 type  1   force =     0.00016840    0.00006442   -0.00103328
     atom   15 type  1   force =    -0.00016840    0.00006442    0.00103328
     atom   16 type  6   force =     0.00010645    0.00002675    0.00052279
     atom   17 type  6   force =    -0.00010645    0.00002675   -0.00052279
     atom   18 type  6   force =     0.00001408   -0.00002015   -0.00037718
     atom   19 type  6   force =    -0.00001408   -0.00002015    0.00037718
     atom   20 type  6   force =    -0.00001801   -0.00005314    0.00043148
     atom   21 type  6   force =     0.00001801   -0.00005314   -0.00043148
     atom   22 type  6   force =    -0.00000490   -0.00007291    0.00003624
     atom   23 type  6   force =     0.00000490   -0.00007291   -0.00003624
     atom   24 type  6   force =    -0.00022668    0.00107399    0.00030519
     atom   25 type  6   force =     0.00022668    0.00107399   -0.00030519
     atom   26 type  6   force =     0.00085265    0.00005259    0.00018189
     atom   27 type  6   force =    -0.00085265    0.00005259   -0.00018189
     atom   28 type  6   force =     0.00031837   -0.00050063    0.00004224
     atom   29 type  6   force =    -0.00031837   -0.00050063   -0.00004223
     atom   30 type  6   force =    -0.00020532    0.00032462   -0.00007191
     atom   31 type  6   force =     0.00020532    0.00032462    0.00007191
     atom   32 type  6   force =     0.00093784   -0.00042596    0.00040116
     atom   33 type  6   force =    -0.00093784   -0.00042596   -0.00040116
     atom   34 type  6   force =     0.00064703   -0.00049701   -0.00046327
     atom   35 type  6   force =    -0.00064703   -0.00049701    0.00046327
     atom   36 type  6   force =    -0.00003655   -0.00001374   -0.00051038
     atom   37 type  6   force =     0.00003655   -0.00001374    0.00051038
     atom   38 type  6   force =    -0.00002478    0.00012176   -0.00045154
     atom   39 type  6   force =     0.00002478    0.00012176    0.00045154
     atom   40 type  3   force =    -0.00001993    0.00006837   -0.00027424
     atom   41 type  3   force =     0.00001993    0.00006837    0.00027424
     atom   42 type  3   force =     0.00009147   -0.00044445   -0.00014385
     atom   43 type  3   force =    -0.00009147   -0.00044445    0.00014385
     atom   44 type  2   force =     0.00000000   -0.00004420   -0.00000000

     Total force =     0.002841     Total SCF correction =     0.000070

     DFT-D3 dispersion Force =     0.004538

     Computing stress (Cartesian axis) and pressure

     negative rho (up, down):  0.000E+00 4.570E-04
          total   stress  (Ry/bohr**3)                   (kbar)     P=       -0.22
  -0.00000200   0.00000000  -0.00000028           -0.29        0.00       -0.04
   0.00000000  -0.00000160   0.00000000            0.00       -0.24        0.00
  -0.00000028   0.00000000  -0.00000083           -0.04        0.00       -0.12

     kinetic stress (kbar)  20102.96      0.00     -5.17
                                0.00  20013.20      0.00
                               -5.17      0.00  19851.99

     local   stress (kbar) -40543.23     -0.00    -57.67
                               -0.00 -40081.60      0.00
                              -57.67      0.00  19119.94

     nonloc. stress (kbar)   3791.37      0.00     -4.19
                                0.00   3797.31      0.00
                               -4.19      0.00   3772.24

     hartree stress (kbar)  22854.04     -0.00     29.15
                               -0.00  22622.65      0.00
                               29.15      0.00  -6327.82

     exc-cor stress (kbar)  -2816.04      0.00      0.13
                                0.00  -2816.13     -0.00
                                0.13     -0.00  -2812.71

     corecor stress (kbar)  -1854.93     -0.00      0.17
                               -0.00  -1854.35      0.00
                                0.17      0.00  -1856.62

     ewald   stress (kbar)  -1519.90      0.00     37.45
                                0.00  -1666.63     -0.00
                               37.45     -0.00 -31736.26

     hubbard stress (kbar)      0.00      0.00      0.00
                                0.00      0.00      0.00
                                0.00      0.00      0.00

     DFT-D   stress (kbar)    -14.57     -0.00      0.08
                               -0.00    -14.69     -0.00
                                0.08     -0.00    -10.88

     XDM     stress (kbar)      0.00      0.00      0.00
                                0.00      0.00      0.00
                                0.00      0.00      0.00

     dft-nl  stress (kbar)      0.00      0.00      0.00
                                0.00      0.00      0.00
                                0.00      0.00      0.00

     TS-vdW  stress (kbar)      0.00      0.00      0.00
                                0.00      0.00      0.00
                                0.00      0.00      0.00

     MDB     stress (kbar)      0.00      0.00      0.00
                                0.00      0.00      0.00
                                0.00      0.00      0.00

     3D-RISM stress (kbar)      0.00      0.00      0.00
                                0.00      0.00      0.00
                                0.00      0.00      0.00

     Writing all to output data dir ./temp/phl-fe1-fe6.save/ :
     XML data file, charge density, pseudopotentials, collected wavefunctions

     General routines

     Parallel routines

     PAW routines

   This run was terminated on:  19:38:34  15Jan2025

   JOB DONE.