     Program PWSCF v.7.3.1 starts on 22Dec2024 at 15:33:35

     Reading input from vc_relax.in

     Current dimensions of program PWSCF are:
     Max number of different atomic species (ntypx) = 10
     Max number of k-points (npk) =  40000
     Max angular momentum in pseudopotentials (lmaxx) =  4
     file Al.pbe-n-kjpaw_psl.1.0.0.UPF: wavefunction(s)  3S 3P renormalized
     file Fe.pbe-spn-kjpaw_psl.1.0.0.UPF: wavefunction(s)  3P 3D renormalized
     file Fe.pbe-spn-kjpaw_psl.1.0.0.UPF: wavefunction(s)  3P 3D renormalized
     file H.pbe-kjpaw_psl.1.0.0.UPF: wavefunction(s)  1S renormalized
     file K.pbe-spn-kjpaw_psl.1.0.0.UPF: wavefunction(s)  3S renormalized
     file Mg.pbe-spnl-kjpaw_psl.1.0.0.UPF: wavefunction(s)  2P renormalized
     file O.pbe-n-kjpaw_psl.1.0.0.UPF: wavefunction(s)  2S 2P renormalized
     file Si.pbe-n-kjpaw_psl.1.0.0.UPF: wavefunction(s)  3S 3P renormalized

     R & G space division:  proc/nbgrp/npool/nimage =      12
     Subspace diagonalization in iterative solution of the eigenvalue problem:
     one sub-group per band group will be used

     Using Slab Decomposition

     bravais-lattice index     =          -12
     lattice parameter (alat)  =      20.0462  a.u.
     unit-cell volume          =    6626.3411 (a.u.)^3
     number of atoms/cell      =           88
     number of atomic types    =            8
     number of electrons       =       524.00
     number of Kohn-Sham states=          314
     kinetic-energy cutoff     =      60.0000  Ry
     charge density cutoff     =     480.0000  Ry
     scf convergence threshold =      1.0E-06
     mixing beta               =       0.7000
     number of iterations used =            8  plain     mixing
     energy convergence thresh.=      1.0E-04
     force convergence thresh. =      1.0E-03
     press convergence thresh. =      5.0E-01
     Exchange-correlation= SLA  PW   PBX  PBC
                           (   1   4   3   4   0   0   0)
     nstep                     =           50

     celldm(1)=  20.046151  celldm(2)=   0.869553  celldm(3)=   0.961035
     celldm(4)=   0.000000  celldm(5)=  -0.176276  celldm(6)=   0.000000

     crystal axes: (cart. coord. in units of alat)
               a(1) = (   1.000000   0.000000   0.000000 )
               a(2) = (   0.000000   0.869553   0.000000 )
               a(3) = (  -0.169408   0.000000   0.945986 )

     reciprocal axes: (cart. coord. in units 2 pi/alat)
               b(1) = (  1.000000 -0.000000  0.179080 )
               b(2) = (  0.000000  1.150017 -0.000000 )
               b(3) = (  0.000000  0.000000  1.057098 )

     PseudoPot. # 1 for Al read from file:
     ./../../pseudos/Al.pbe-n-kjpaw_psl.1.0.0.UPF
     MD5 check sum: 502b6b27b9c6270cab5dd1084b96fa6d
     Pseudo is Projector augmented-wave + core cor, Zval =  3.0
     Generated using &quot;atomic&quot; code by A. Dal Corso  v.6.3
     Shape of augmentation charge: PSQ
     Using radial grid of 1135 points,  6 beta functions with:
                l(1) =   0
                l(2) =   0
                l(3) =   1
                l(4) =   1
                l(5) =   2
                l(6) =   2
     Q(r) pseudized with 0 coefficients

     PseudoPot. # 2 for Fe read from file:
     ./../../pseudos/Fe.pbe-spn-kjpaw_psl.1.0.0.UPF
     MD5 check sum: fc81f059e5c5069939230b1155715ae8
     Pseudo is Projector augmented-wave + core cor, Zval = 16.0
     Generated using &quot;atomic&quot; code by A. Dal Corso  v.6.3
     Shape of augmentation charge: PSQ
     Using radial grid of 1191 points,  6 beta functions with:
                l(1) =   0
                l(2) =   0
                l(3) =   1
                l(4) =   1
                l(5) =   2
                l(6) =   2
     Q(r) pseudized with 0 coefficients

[...]

     PseudoPot. # 4 for H  read from file:
     ./../../pseudos/H.pbe-kjpaw_psl.1.0.0.UPF
     MD5 check sum: d81a744832360e4a8af0b0b5b123bc2a
     Pseudo is Projector augmented-wave, Zval =  1.0
     Generated using &quot;atomic&quot; code by A. Dal Corso  v.6.3MaX
     Shape of augmentation charge: PSQ
     Using radial grid of  929 points,  2 beta functions with:
                l(1) =   0
                l(2) =   0
     Q(r) pseudized with 0 coefficients

     PseudoPot. # 5 for K  read from file:
     ./../../pseudos/K.pbe-spn-kjpaw_psl.1.0.0.UPF
     MD5 check sum: 34cc42130a09071ebe376fd42eb21491
     Pseudo is Projector augmented-wave + core cor, Zval =  9.0
     Generated using &quot;atomic&quot; code by A. Dal Corso  v.6.2.2
     Shape of augmentation charge: PSQ
     Using radial grid of 1165 points,  6 beta functions with:
                l(1) =   0
                l(2) =   0
                l(3) =   1
                l(4) =   1
                l(5) =   2
                l(6) =   2
     Q(r) pseudized with 0 coefficients

     PseudoPot. # 6 for Mg read from file:
     ./../../pseudos/Mg.pbe-spnl-kjpaw_psl.1.0.0.UPF
     MD5 check sum: fda14e0d92a6a9a5ebed782e5a4b3067
     Pseudo is Projector augmented-wave + core cor, Zval = 10.0
     Generated using &quot;atomic&quot; code by A. Dal Corso  v.6.3
     Shape of augmentation charge: PSQ
     Using radial grid of 1129 points,  4 beta functions with:
                l(1) =   0
                l(2) =   0
                l(3) =   1
                l(4) =   1
     Q(r) pseudized with 0 coefficients

     PseudoPot. # 7 for O  read from file:
     ./../../pseudos/O.pbe-n-kjpaw_psl.1.0.0.UPF
     MD5 check sum: e99d9cef9b487d1ca56f5b95ecd0fd7a
     Pseudo is Projector augmented-wave + core cor, Zval =  6.0
     Generated using &quot;atomic&quot; code by A. Dal Corso  v.6.3
     Shape of augmentation charge: PSQ
     Using radial grid of 1095 points,  4 beta functions with:
                l(1) =   0
                l(2) =   0
                l(3) =   1
                l(4) =   1
     Q(r) pseudized with 0 coefficients

     PseudoPot. # 8 for Si read from file:
     ./../../pseudos/Si.pbe-n-kjpaw_psl.1.0.0.UPF
     MD5 check sum: c39c59da582df4a0d9f10159256ea34e
     Pseudo is Projector augmented-wave + core cor, Zval =  4.0
     Generated using &quot;atomic&quot; code by A. Dal Corso  v.6.3
     Shape of augmentation charge: PSQ
     Using radial grid of 1141 points,  6 beta functions with:
                l(1) =   0
                l(2) =   0
                l(3) =   1
                l(4) =   1
                l(5) =   2
                l(6) =   2
     Q(r) pseudized with 0 coefficients

     atomic species   valence    mass     pseudopotential
     Al                3.00    26.98154     Al( 1.00)
     Fe1              16.00    55.84500     Fe( 1.00)
     Fe2              16.00    55.84500     Fe( 1.00)
     H                 1.00     1.00794     H ( 1.00)
     K                 9.00    39.09830     K ( 1.00)
     Mg               10.00    24.30500     Mg( 1.00)
     O                 6.00    15.99940     O ( 1.00)
     Si                4.00    28.08550     Si( 1.00)

     Starting magnetic structure
     atomic species   magnetization
     Al              0.000
     Fe1             0.300
     Fe2            -0.300
     H               0.000
     K               0.000
     Mg              0.000
     O               0.000
     Si              0.000

      2 Sym. Ops. (no inversion) found ( 1 have fractional translation)

                                    s                        frac. trans.

      isym =  1     identity

 cryst.   s( 1) = (     1          0          0      )
                  (     0          1          0      )
                  (     0          0          1      )

 cart.    s( 1) = (  1.0000000  0.0000000  0.0000000 )
                  (  0.0000000  1.0000000  0.0000000 )
                  (  0.0000000  0.0000000  1.0000000 )

      isym =  2     180 deg rotation - cart. axis [0,1,0]

 cryst.   s( 2) = (    -1          0          0      )    f =(  0.5000000 )
                  (     0          1          0      )       (  0.0000000 )
                  (     0          0         -1      )       (  0.0000000 )

 cart.    s( 2) = ( -1.0000000  0.0000000  0.0000000 )    f =(  0.5000000 )
                  (  0.0000000  1.0000000  0.0000000 )       (  0.0000000 )
                  (  0.0000000  0.0000000 -1.0000000 )       (  0.0000000 )

     point group C_2  (2)
     there are  2 classes
     the character table:

       E     C2
A      1.00  1.00
B      1.00 -1.00

     the symmetry operations in each class and the name of the first element:

     E        1
          identity
     C2       2
          180 deg rotation - cart. axis [0,1,0]

   Cartesian axes

     site n.     atom                  positions (alat units)
         1        K      tau(   1) = (   0.0000000   0.4330522   0.0000000  )
         2        K      tau(   2) = (   0.5000000   0.4330522   0.0000000  )
         3        K      tau(   3) = (   0.2500000   0.0004867   0.0000000  )
         4        K      tau(   4) = (   0.7500000   0.0004867   0.0000000  )
         5        Mg     tau(   5) = (   0.4152961   0.0031839   0.4729932  )
         6        Mg     tau(   6) = (  -0.0847038   0.0031839   0.4729932  )
         7        Mg     tau(   7) = (   0.4152961   0.2883605   0.4729932  )
         8        Mg     tau(   8) = (  -0.0847038   0.2883605   0.4729932  )
         9        Mg     tau(   9) = (   0.4152961   0.5789933   0.4729932  )
        10        Mg     tau(  10) = (  -0.0847038   0.5789933   0.4729932  )
        11        Mg     tau(  11) = (   0.1652961   0.7268787   0.4729932  )
        12        Mg     tau(  12) = (   0.6652961   0.7268787   0.4729932  )
        13        Mg     tau(  13) = (   0.1652961   0.1466516   0.4729932  )
        14        Mg     tau(  14) = (   0.6652961   0.1466516   0.4729932  )
        15        Fe1    tau(  15) = (   0.1652961   0.4281911   0.4729932  )
        16        Fe2    tau(  16) = (   0.6652961   0.4281911   0.4729932  )
        17        Si     tau(  17) = (   0.0044527   0.1432539   0.2102802  )
        18        Si     tau(  18) = (   0.5044527   0.1432539   0.2102802  )
        19        Si     tau(  19) = (   0.3261395   0.1432539   0.7357062  )
        20        Si     tau(  20) = (   0.8261395   0.1432539   0.7357062  )
        21        Si     tau(  21) = (   0.3359335   0.7255824   0.7303302  )
        22        Si     tau(  22) = (   0.8359336   0.7255824   0.7303302  )
        23        Si     tau(  23) = (  -0.0053413   0.7255824   0.2156561  )
        24        Si     tau(  24) = (   0.4946587   0.7255824   0.2156561  )
        25        Si     tau(  25) = (   0.2446438   0.5806124   0.2139842  )
        26        Si     tau(  26) = (   0.7446438   0.5806124   0.2139842  )
        27        Si     tau(  27) = (   0.0859484   0.5806124   0.7320022  )
        28        Si     tau(  28) = (   0.5859484   0.5806124   0.7320022  )
        29        Al     tau(  29) = (   0.0756616   0.2877966   0.7343198  )
        30        Al     tau(  30) = (   0.5756616   0.2877966   0.7343198  )
        31        Al     tau(  31) = (   0.2549306   0.2877966   0.2116665  )
        32        Al     tau(  32) = (   0.7549306   0.2877966   0.2116665  )
[...]
     atom   50 type  7   force =     0.00000000    0.00000000    0.00000000
     atom   51 type  7   force =     0.00000000    0.00000000    0.00000000
     atom   52 type  7   force =     0.00000000    0.00000000    0.00000000
     atom   53 type  7   force =     0.00000000    0.00000000    0.00000000
     atom   54 type  7   force =     0.00000000    0.00000000    0.00000000
     atom   55 type  7   force =     0.00000000    0.00000000    0.00000000
     atom   56 type  7   force =     0.00000000    0.00000000    0.00000000
     atom   57 type  7   force =     0.00000000    0.00000000    0.00000000
     atom   58 type  7   force =     0.00000000    0.00000000    0.00000000
     atom   59 type  7   force =     0.00000000    0.00000000    0.00000000
     atom   60 type  7   force =     0.00000000    0.00000000    0.00000000
[...]
     atom   74 type  7   force =     0.00000000    0.00000000    0.00000000
     atom   75 type  7   force =     0.00000000    0.00000000    0.00000000
     atom   76 type  7   force =     0.00000000    0.00000000    0.00000000
     atom   77 type  7   force =     0.00000000    0.00000000    0.00000000
     atom   78 type  7   force =     0.00000000    0.00000000    0.00000000
     atom   79 type  7   force =     0.00000000    0.00000000    0.00000000
     atom   80 type  7   force =     0.00000000    0.00000000    0.00000000
     atom   81 type  4   force =     0.00000000    0.00000000    0.00000000
     atom   82 type  4   force =     0.00000000    0.00000000    0.00000000
     atom   83 type  4   force =     0.00000000    0.00000000    0.00000000
     atom   84 type  4   force =     0.00000000    0.00000000    0.00000000
     atom   85 type  4   force =     0.00000000    0.00000000    0.00000000
     atom   86 type  4   force =     0.00000000    0.00000000    0.00000000
     atom   87 type  4   force =     0.00000000    0.00000000    0.00000000
     atom   88 type  4   force =     0.00000000    0.00000000    0.00000000
     The SCF correction term to forces
     atom    1 type  5   force =    -0.00001663    0.00004448    0.00004247
     atom    2 type  5   force =     0.00001663    0.00004448   -0.00004247
     atom    3 type  5   force =    -0.00000000   -0.00001849   -0.00000000
     atom    4 type  5   force =    -0.00000000   -0.00007703   -0.00000000
     atom    5 type  6   force =    -0.00006328    0.00005679   -0.00001876
     atom    6 type  6   force =     0.00006328    0.00005679    0.00001876
     atom    7 type  6   force =    -0.00029766   -0.00019705   -0.00000326
     atom    8 type  6   force =     0.00029766   -0.00019705    0.00000326
     atom    9 type  6   force =    -0.00028880    0.00014624   -0.00002335
     atom   10 type  6   force =     0.00028880    0.00014625    0.00002335
     atom   11 type  6   force =     0.00000000   -0.00002891    0.00000000
     atom   12 type  6   force =    -0.00000000    0.00029021    0.00000000
     atom   13 type  6   force =     0.00000000    0.00012648    0.00000000
     atom   14 type  6   force =    -0.00000000   -0.00018831    0.00000000
     atom   15 type  2   force =     0.00000001   -0.00025846    0.00000000
     atom   16 type  3   force =    -0.00000001   -0.00021009   -0.00000000
     atom   17 type  8   force =     0.00001432   -0.00000507    0.00006224
     atom   18 type  8   force =    -0.00002309   -0.00002723    0.00003883
     atom   19 type  8   force =    -0.00001432   -0.00000507   -0.00006224
     atom   20 type  8   force =     0.00002309   -0.00002723   -0.00003883
     atom   21 type  8   force =    -0.00000053   -0.00000214   -0.00002158
     atom   22 type  8   force =     0.00000294    0.00001924   -0.00001767
     atom   23 type  8   force =     0.00000053   -0.00000214    0.00002158
     atom   24 type  8   force =    -0.00000294    0.00001924    0.00001767
     atom   25 type  8   force =    -0.00002175   -0.00000502    0.00006355
     atom   26 type  8   force =     0.00002807    0.00004270   -0.00006712
     atom   27 type  8   force =     0.00002175   -0.00000502   -0.00006355
     atom   28 type  8   force =    -0.00002807    0.00004270    0.00006712
     atom   29 type  1   force =     0.00001691    0.00000131   -0.00006126
     atom   30 type  1   force =    -0.00002023   -0.00001583    0.00000622
     atom   31 type  1   force =    -0.00001691    0.00000131    0.00006126
     atom   32 type  1   force =     0.00002023   -0.00001583   -0.00000622
     atom   33 type  7   force =     0.00008860    0.00001579    0.00010886
     atom   34 type  7   force =    -0.00009222   -0.00006445    0.00004880
     atom   35 type  7   force =    -0.00008860    0.00001579   -0.00010886
     atom   36 type  7   force =     0.00009223   -0.00006445   -0.00004880
     atom   37 type  7   force =    -0.00006161    0.00002331   -0.00003978
     atom   38 type  7   force =     0.00007215    0.00009632   -0.00000549
     atom   39 type  7   force =     0.00006161    0.00002331    0.00003978
     atom   40 type  7   force =    -0.00007215    0.00009632    0.00000549
     atom   41 type  7   force =    -0.00008944   -0.00004224    0.00009808
     atom   42 type  7   force =     0.00013446    0.00021613   -0.00017312
     atom   43 type  7   force =     0.00008944   -0.00004224   -0.00009808
     atom   44 type  7   force =    -0.00013446    0.00021613    0.00017312
     atom   45 type  7   force =     0.00011501    0.00002188   -0.00014034
     atom   46 type  7   force =    -0.00015401   -0.00023975    0.00008474
     atom   47 type  7   force =    -0.00011501    0.00002188    0.00014034
     atom   48 type  7   force =     0.00015401   -0.00023975   -0.00008474
     atom   49 type  7   force =     0.00001129    0.00000785    0.00009783
     atom   50 type  7   force =     0.00000013   -0.00004145    0.00000995
     atom   51 type  7   force =    -0.00001129    0.00000785   -0.00009783
     atom   52 type  7   force =    -0.00000013   -0.00004145   -0.00000995
     atom   53 type  7   force =    -0.00000761   -0.00001777    0.00004320
     atom   54 type  7   force =     0.00000708   -0.00003969    0.00004779
     atom   55 type  7   force =     0.00000761   -0.00001777   -0.00004320
     atom   56 type  7   force =    -0.00000708   -0.00003969   -0.00004779
     atom   57 type  7   force =     0.00002992    0.00001218   -0.00005749
     atom   58 type  7   force =    -0.00002552    0.00002545    0.00002765
     atom   59 type  7   force =    -0.00002992    0.00001218    0.00005749
     atom   60 type  7   force =     0.00002552    0.00002545   -0.00002765
[...]
     atom   74 type  7   force =    -0.00025434   -0.00002414   -0.00013670
     atom   75 type  7   force =    -0.00018975   -0.00002680   -0.00005647
     atom   76 type  7   force =     0.00025434   -0.00002414    0.00013670
     atom   77 type  7   force =    -0.00002874    0.00004201    0.00008213
     atom   78 type  7   force =     0.00003186    0.00000884    0.00003104
     atom   79 type  7   force =     0.00002874    0.00004201   -0.00008213
     atom   80 type  7   force =    -0.00003186    0.00000884   -0.00003104
     atom   81 type  4   force =     0.00001818   -0.00000281   -0.00000044
     atom   82 type  4   force =    -0.00001951   -0.00000320   -0.00003140
     atom   83 type  4   force =    -0.00001818   -0.00000281    0.00000044
     atom   84 type  4   force =     0.00001951   -0.00000320    0.00003140
     atom   85 type  4   force =    -0.00000286    0.00000345    0.00001638
     atom   86 type  4   force =     0.00000385   -0.00000324    0.00001297
     atom   87 type  4   force =     0.00000286    0.00000345   -0.00001638
     atom   88 type  4   force =    -0.00000385   -0.00000324   -0.00001297

     Dispersion contribution to forces:
     atom    1 type  5   force =     0.00000006    0.00240195    0.00000004
     atom    2 type  5   force =    -0.00000008    0.00240195   -0.00000004
     atom    3 type  5   force =    -0.00000001   -0.00189941   -0.00000001
     atom    4 type  5   force =    -0.00000001   -0.00189939   -0.00000001
     atom    5 type  6   force =     0.00000003    0.00051920    0.00000001
     atom    6 type  6   force =    -0.00000003    0.00051920   -0.00000001
     atom    7 type  6   force =     0.00000014   -0.00226190   -0.00000019
     atom    8 type  6   force =    -0.00000015   -0.00226191    0.00000018
     atom    9 type  6   force =     0.00000044    0.00079816   -0.00000012
     atom   10 type  6   force =    -0.00000044    0.00079816    0.00000013
     atom   11 type  6   force =     0.00000000    0.00238783    0.00000000
     atom   12 type  6   force =     0.00000000    0.00238786    0.00000001
     atom   13 type  6   force =     0.00000000   -0.00389522   -0.00000000
     atom   14 type  6   force =    -0.00000000   -0.00389589   -0.00000000
     atom   15 type  2   force =     0.00000001    0.00308403    0.00000000
     atom   16 type  3   force =     0.00000000    0.00308485    0.00000000
     atom   17 type  8   force =    -0.00014864   -0.00044831    0.00146043
     atom   18 type  8   force =    -0.00014870   -0.00044825    0.00146059
     atom   19 type  8   force =     0.00014864   -0.00044831   -0.00146043
     atom   20 type  8   force =     0.00014870   -0.00044825   -0.00146058
     atom   21 type  8   force =    -0.00008795    0.00016351   -0.00089170
     atom   22 type  8   force =    -0.00008788    0.00016343   -0.00089188
     atom   23 type  8   force =     0.00008795    0.00016351    0.00089169
     atom   24 type  8   force =     0.00008789    0.00016343    0.00089187
     atom   25 type  8   force =     0.00044524    0.00156729   -0.00044177
     atom   26 type  8   force =     0.00044529    0.00156725   -0.00044179
     atom   27 type  8   force =    -0.00044524    0.00156729    0.00044176
     atom   28 type  8   force =    -0.00044530    0.00156725    0.00044179
     atom   29 type  1   force =    -0.00074784   -0.00146243   -0.00142580
     atom   30 type  1   force =    -0.00074784   -0.00146237   -0.00142559
     atom   31 type  1   force =     0.00074784   -0.00146243    0.00142581
     atom   32 type  1   force =     0.00074784   -0.00146237    0.00142560
     atom   33 type  7   force =    -0.00015308    0.00015859    0.00038815
     atom   34 type  7   force =    -0.00015308    0.00015856    0.00038807
     atom   35 type  7   force =     0.00015308    0.00015859   -0.00038814
     atom   36 type  7   force =     0.00015309    0.00015856   -0.00038806
     atom   37 type  7   force =     0.00010083   -0.00017578   -0.00026988
     atom   38 type  7   force =     0.00010085   -0.00017578   -0.00026977
     atom   39 type  7   force =    -0.00010083   -0.00017578    0.00026988
     atom   40 type  7   force =    -0.00010085   -0.00017578    0.00026977
     atom   41 type  7   force =    -0.00015482   -0.00014714    0.00061055
     atom   42 type  7   force =    -0.00015478   -0.00014717    0.00061034
     atom   43 type  7   force =     0.00015482   -0.00014714   -0.00061055
     atom   44 type  7   force =     0.00015478   -0.00014717   -0.00061034
     atom   45 type  7   force =    -0.00016658   -0.00008600    0.00092041
     atom   46 type  7   force =    -0.00016662   -0.00008600    0.00092047
     atom   47 type  7   force =     0.00016658   -0.00008600   -0.00092041
     atom   48 type  7   force =     0.00016662   -0.00008600   -0.00092048
     atom   49 type  7   force =     0.00036529    0.00189525    0.00142019
     atom   50 type  7   force =     0.00036532    0.00189529    0.00142019
     atom   51 type  7   force =    -0.00036529    0.00189525   -0.00142019
     atom   52 type  7   force =    -0.00036532    0.00189529   -0.00142019
     atom   53 type  7   force =     0.00024215    0.00014401    0.00050954
     atom   54 type  7   force =     0.00024222    0.00014400    0.00050956
     atom   55 type  7   force =    -0.00024214    0.00014401   -0.00050953
     atom   56 type  7   force =    -0.00024221    0.00014400   -0.00050955
     atom   57 type  7   force =    -0.00001482    0.00008484    0.00001771
     atom   58 type  7   force =    -0.00001484    0.00008482    0.00001768
     atom   59 type  7   force =     0.00001482    0.00008484   -0.00001772
     atom   60 type  7   force =     0.00001483    0.00008482   -0.00001769
[...]
     atom   74 type  7   force =     0.00006159    0.00013246   -0.00214994
     atom   75 type  7   force =    -0.00006159    0.00013247    0.00214994
     atom   76 type  7   force =    -0.00006159    0.00013246    0.00214994
     atom   77 type  7   force =     0.00016162    0.00009709   -0.00243903
     atom   78 type  7   force =     0.00016162    0.00009708   -0.00243912
     atom   79 type  7   force =    -0.00016162    0.00009709    0.00243903
     atom   80 type  7   force =    -0.00016162    0.00009708    0.00243911
     atom   81 type  4   force =    -0.00074241   -0.00017906   -0.00013353
     atom   82 type  4   force =    -0.00074239   -0.00017907   -0.00013351
     atom   83 type  4   force =     0.00074241   -0.00017906    0.00013353
     atom   84 type  4   force =     0.00074239   -0.00017908    0.00013351
     atom   85 type  4   force =     0.00036388   -0.00016419    0.00085573
     atom   86 type  4   force =     0.00036387   -0.00016417    0.00085579
     atom   87 type  4   force =    -0.00036388   -0.00016419   -0.00085573
     atom   88 type  4   force =    -0.00036387   -0.00016417   -0.00085578

     Total force =     0.003331     Total SCF correction =     0.001325

     Total Dispersion Force =     0.015695
     SCF correction compared to forces is large: reduce conv_thr to get better values

     Computing stress (Cartesian axis) and pressure

     negative rho (up, down):  2.008E-04 2.008E-04
          total   stress  (Ry/bohr**3)                   (kbar)     P=        0.05
   0.00000170   0.00000000   0.00000083            0.25        0.00        0.12
   0.00000000   0.00000036   0.00000000            0.00        0.05        0.00
   0.00000083   0.00000000  -0.00000113            0.12        0.00       -0.17

     kinetic stress (kbar)  20791.56      0.00     18.23
                                0.00  20698.38      0.00
                               18.23      0.00  20534.23

     local   stress (kbar) -38404.33      0.00    141.70
                                0.00 -38284.29      0.00
                              141.70      0.00  17181.60

     nonloc. stress (kbar)   3916.20      0.00     -0.03
                                0.00   3919.03      0.00
                               -0.03      0.00   3896.28

     hartree stress (kbar)  21935.08      0.00    -51.90
                                0.00  21874.72     -0.00
                              -51.90     -0.00  -5243.44

     exc-cor stress (kbar)  -2912.23     -0.00     -0.05
                               -0.00  -2912.51     -0.00
                               -0.05     -0.00  -2908.86

     corecor stress (kbar)  -1916.79      0.00     -0.01
                                0.00  -1916.28      0.00
                               -0.01      0.00  -1918.64

     ewald   stress (kbar)  -3379.27     -0.00   -107.66
                               -0.00  -3349.15      0.00
                             -107.66      0.00 -31511.93

     hubbard stress (kbar)      0.00      0.00      0.00
                                0.00      0.00      0.00
                                0.00      0.00      0.00

     DFT-D   stress (kbar)    -29.97      0.00     -0.16
                                0.00    -29.86     -0.00
                               -0.16     -0.00    -29.40

     XDM     stress (kbar)      0.00      0.00      0.00
                                0.00      0.00      0.00
                                0.00      0.00      0.00

     dft-nl  stress (kbar)      0.00      0.00      0.00
                                0.00      0.00      0.00
                                0.00      0.00      0.00

     TS-vdW  stress (kbar)      0.00      0.00      0.00
                                0.00      0.00      0.00
                                0.00      0.00      0.00

     MDB     stress (kbar)      0.00      0.00      0.00
                                0.00      0.00      0.00
                                0.00      0.00      0.00

     3D-RISM stress (kbar)      0.00      0.00      0.00
                                0.00      0.00      0.00
                                0.00      0.00      0.00

     Writing all to output data dir ./temp/phl-fe1x2.save/ :
     XML data file, charge density, pseudopotentials, collected wavefunctions

     General routines

     Parallel routines

     PAW routines

   This run was terminated on:  21:41:36  24Dec2024

   JOB DONE.