     Program PWSCF v.7.3.1 starts on 19Dec2024 at  2:37:44

     Reading input from relax.in
Warning: card  &CELL ignored
Warning: card    CELL_DOFREE     = 'IBRAV' ignored
Warning: card  / ignored

     Current dimensions of program PWSCF are:
     Max number of different atomic species (ntypx) = 10
     Max number of k-points (npk) =  40000
     Max angular momentum in pseudopotentials (lmaxx) =  4
     file Al.pbe-n-kjpaw_psl.1.0.0.UPF: wavefunction(s)  3S 3P renormalized
     file Fe.pbe-spn-kjpaw_psl.1.0.0.UPF: wavefunction(s)  3P 3D renormalized
     file H.pbe-kjpaw_psl.1.0.0.UPF: wavefunction(s)  1S renormalized
     file K.pbe-spn-kjpaw_psl.1.0.0.UPF: wavefunction(s)  3S renormalized
     file Mg.pbe-spnl-kjpaw_psl.1.0.0.UPF: wavefunction(s)  2P renormalized
     file O.pbe-n-kjpaw_psl.1.0.0.UPF: wavefunction(s)  2S 2P renormalized
     file Si.pbe-n-kjpaw_psl.1.0.0.UPF: wavefunction(s)  3S 3P renormalized

     R & G space division:  proc/nbgrp/npool/nimage =       8
     Subspace diagonalization in iterative solution of the eigenvalue problem:
     one sub-group per band group will be used

     Using Slab Decomposition

     bravais-lattice index     =          -12
     lattice parameter (alat)  =       9.9883  a.u.
     unit-cell volume          =    3285.8057 (a.u.)^3
     number of atoms/cell      =           44
     number of atomic types    =            7
     number of electrons       =       262.00
     number of Kohn-Sham states=          157
     kinetic-energy cutoff     =      60.0000  Ry
     charge density cutoff     =     480.0000  Ry
     scf convergence threshold =      1.0E-06
     mixing beta               =       0.7000
     number of iterations used =            8  plain     mixing
     energy convergence thresh.=      1.0E-04
     force convergence thresh. =      1.0E-03
     Exchange-correlation= SLA  PW   PBX  PBC
                           (   1   4   3   4   0   0   0)
     nstep                     =           50

     celldm(1)=   9.988336  celldm(2)=   1.736567  celldm(3)=   1.928182
     celldm(4)=   0.000000  celldm(5)=  -0.174018  celldm(6)=   0.000000

     crystal axes: (cart. coord. in units of alat)
               a(1) = (   1.000000   0.000000   0.000000 )
               a(2) = (   0.000000   1.736567   0.000000 )
               a(3) = (  -0.335538   0.000000   1.898763 )

     reciprocal axes: (cart. coord. in units 2 pi/alat)
               b(1) = (  1.000000 -0.000000  0.176714 )
               b(2) = (  0.000000  0.575849 -0.000000 )
               b(3) = (  0.000000  0.000000  0.526659 )

     PseudoPot. # 1 for Al read from file:
     ./../../pseudos/Al.pbe-n-kjpaw_psl.1.0.0.UPF
     MD5 check sum: 502b6b27b9c6270cab5dd1084b96fa6d
     Pseudo is Projector augmented-wave + core cor, Zval =  3.0
     Generated using &quot;atomic&quot; code by A. Dal Corso  v.6.3
     Shape of augmentation charge: PSQ
     Using radial grid of 1135 points,  6 beta functions with:
                l(1) =   0
                l(2) =   0
                l(3) =   1
                l(4) =   1
                l(5) =   2
                l(6) =   2
     Q(r) pseudized with 0 coefficients

     PseudoPot. # 2 for Fe read from file:
     ./../../pseudos/Fe.pbe-spn-kjpaw_psl.1.0.0.UPF
     MD5 check sum: fc81f059e5c5069939230b1155715ae8
     Pseudo is Projector augmented-wave + core cor, Zval = 16.0
     Generated using &quot;atomic&quot; code by A. Dal Corso  v.6.3
     Shape of augmentation charge: PSQ
     Using radial grid of 1191 points,  6 beta functions with:
                l(1) =   0
                l(2) =   0
                l(3) =   1
                l(4) =   1
                l(5) =   2
                l(6) =   2
     Q(r) pseudized with 0 coefficients

     PseudoPot. # 3 for H  read from file:
     ./../../pseudos/H.pbe-kjpaw_psl.1.0.0.UPF
     MD5 check sum: d81a744832360e4a8af0b0b5b123bc2a
     Pseudo is Projector augmented-wave, Zval =  1.0
     Generated using &quot;atomic&quot; code by A. Dal Corso  v.6.3MaX
     Shape of augmentation charge: PSQ
     Using radial grid of  929 points,  2 beta functions with:
                l(1) =   0
                l(2) =   0
     Q(r) pseudized with 0 coefficients

     PseudoPot. # 4 for K  read from file:
     ./../../pseudos/K.pbe-spn-kjpaw_psl.1.0.0.UPF
     MD5 check sum: 34cc42130a09071ebe376fd42eb21491
     Pseudo is Projector augmented-wave + core cor, Zval =  9.0
     Generated using &quot;atomic&quot; code by A. Dal Corso  v.6.2.2
     Shape of augmentation charge: PSQ
     Using radial grid of 1165 points,  6 beta functions with:
                l(1) =   0
                l(2) =   0
                l(3) =   1
                l(4) =   1
                l(5) =   2
                l(6) =   2
     Q(r) pseudized with 0 coefficients

     PseudoPot. # 5 for Mg read from file:
     ./../../pseudos/Mg.pbe-spnl-kjpaw_psl.1.0.0.UPF
     MD5 check sum: fda14e0d92a6a9a5ebed782e5a4b3067
     Pseudo is Projector augmented-wave + core cor, Zval = 10.0
     Generated using &quot;atomic&quot; code by A. Dal Corso  v.6.3
     Shape of augmentation charge: PSQ
     Using radial grid of 1129 points,  4 beta functions with:
                l(1) =   0
                l(2) =   0
                l(3) =   1
                l(4) =   1
     Q(r) pseudized with 0 coefficients

     PseudoPot. # 6 for O  read from file:
     ./../../pseudos/O.pbe-n-kjpaw_psl.1.0.0.UPF
     MD5 check sum: e99d9cef9b487d1ca56f5b95ecd0fd7a
     Pseudo is Projector augmented-wave + core cor, Zval =  6.0
     Generated using &quot;atomic&quot; code by A. Dal Corso  v.6.3
     Shape of augmentation charge: PSQ
     Using radial grid of 1095 points,  4 beta functions with:
                l(1) =   0
                l(2) =   0
                l(3) =   1
                l(4) =   1
     Q(r) pseudized with 0 coefficients

     PseudoPot. # 7 for Si read from file:
     ./../../pseudos/Si.pbe-n-kjpaw_psl.1.0.0.UPF
     MD5 check sum: c39c59da582df4a0d9f10159256ea34e
     Pseudo is Projector augmented-wave + core cor, Zval =  4.0
     Generated using &quot;atomic&quot; code by A. Dal Corso  v.6.3
     Shape of augmentation charge: PSQ
     Using radial grid of 1141 points,  6 beta functions with:
                l(1) =   0
                l(2) =   0
                l(3) =   1
                l(4) =   1
                l(5) =   2
                l(6) =   2
     Q(r) pseudized with 0 coefficients

     atomic species   valence    mass     pseudopotential
     Al                3.00    26.98154     Al( 1.00)
     Fe               16.00    55.84500     Fe( 1.00)
     H                 1.00     1.00794     H ( 1.00)
     K                 9.00    39.09830     K ( 1.00)
     Mg               10.00    24.30500     Mg( 1.00)
     O                 6.00    15.99940     O ( 1.00)
     Si                4.00    28.08550     Si( 1.00)

      2 Sym. Ops. (no inversion) found

                                    s                        frac. trans.

      isym =  1     identity

 cryst.   s( 1) = (     1          0          0      )
                  (     0          1          0      )
                  (     0          0          1      )

 cart.    s( 1) = (  1.0000000  0.0000000  0.0000000 )
                  (  0.0000000  1.0000000  0.0000000 )
                  (  0.0000000  0.0000000  1.0000000 )

      isym =  2     180 deg rotation - cart. axis [0,1,0]

 cryst.   s( 2) = (    -1          0          0      )
                  (     0          1          0      )
                  (     0          0         -1      )

 cart.    s( 2) = ( -1.0000000  0.0000000  0.0000000 )
                  (  0.0000000  1.0000000  0.0000000 )
                  (  0.0000000  0.0000000 -1.0000000 )

     point group C_2  (2)
     there are  2 classes
     the character table:

       E     C2
A      1.00  1.00
B      1.00 -1.00

     the symmetry operations in each class and the name of the first element:

     E        1
          identity
     C2       2
          180 deg rotation - cart. axis [0,1,0]

   Cartesian axes

     site n.     atom                  positions (alat units)
         1        K      tau(   1) = (   0.0000000   0.8568223   0.0000000  )
         2        K      tau(   2) = (   0.5000000   0.0097248   0.0000000  )
         3        Mg     tau(   3) = (  -0.1677688   0.0062516   0.9493815  )
         4        Mg     tau(   4) = (  -0.1677688   0.5789715   0.9493815  )
         5        Mg     tau(   5) = (  -0.1677688   1.1532543   0.9493815  )
         6        Mg     tau(   6) = (   0.3322312   1.4489917   0.9493815  )
         7        Mg     tau(   7) = (   0.3322312   0.3011208   0.9493815  )
         8        Fe     tau(   8) = (   0.3322312   0.8644632   0.9493815  )
         9        Si     tau(   9) = (   0.0078751   0.2868809   0.4234242  )
        10        Si     tau(  10) = (   0.6565873   0.2868809   1.4753389  )
        11        Si     tau(  11) = (   0.6740999   1.4484708   1.4645160  )
        12        Si     tau(  12) = (  -0.0096375   1.4484708   0.4342471  )
        13        Si     tau(  13) = (   0.4895001   1.1563801   0.4306395  )
        14        Si     tau(  14) = (   0.1749623   1.1563801   1.4681237  )
        15        Al     tau(  15) = (   0.1565906   0.5770613   1.4724908  )
        16        Al     tau(  16) = (   0.5078718   0.5770613   0.4262723  )
        17        O      tau(  17) = (  -0.0026826   0.2835814   0.7315934  )
        18        O      tau(  18) = (   0.6671450   0.2835814   1.1671696  )
        19        O      tau(  19) = (   0.6695214   1.4455186   1.1588151  )
        20        O      tau(  20) = (  -0.0050590   1.4455186   0.7399480  )
        21        O      tau(  21) = (   0.4958430   1.1596796   0.7382391  )
        22        O      tau(  22) = (   0.1686195   1.1596796   1.1605239  )
        23        O      tau(  23) = (   0.1614037   0.5826183   1.1453339  )
        24        O      tau(  24) = (   0.5030587   0.5826183   0.7534292  )
        25        O      tau(  25) = (   0.2868665   0.3546070   0.3159542  )
        26        O      tau(  26) = (   0.3775959   0.3546070   1.5828089  )
        27        O      tau(  27) = (   0.9409297   1.7313575   0.3189922  )
        28        O      tau(  28) = (  -0.2764673   1.7313575   1.5797709  )
        29        O      tau(  29) = (   0.4011696   1.3470552   1.5767328  )
        30        O      tau(  30) = (   0.2632928   1.3470552   0.3220302  )
        31        O      tau(  31) = (   0.7619283   1.2692570   0.3201314  )
        32        O      tau(  32) = (  -0.0974659   1.2692570   1.5786317  )
        33        O      tau(  33) = (   0.4412429   0.8820025   0.3075996  )
        34        O      tau(  34) = (   0.2232195   0.8820025   1.5911635  )
        35        O      tau(  35) = (  -0.1370160   0.4799872   1.5930622  )
        36        O      tau(  36) = (   0.8014784   0.4799872   0.3057009  )
        37        O      tau(  37) = (   0.0045271   0.8729723   0.7519102  )
        38        O      tau(  38) = (   0.6599353   0.8729723   1.1468528  )
        39        O      tau(  39) = (   0.4991915   1.7355254   0.7538090  )
[...]
     atom    2 type  4   force =     0.00000000    0.00000000    0.00000000
     atom    3 type  5   force =     0.00000000    0.00000000    0.00000000
     atom    4 type  5   force =     0.00000000    0.00000000    0.00000000
     atom    5 type  5   force =     0.00000000    0.00000000    0.00000000
     atom    6 type  5   force =     0.00000000    0.00000000    0.00000000
     atom    7 type  5   force =     0.00000000    0.00000000    0.00000000
     atom    8 type  2   force =     0.00000000    0.00000000    0.00000000
     atom    9 type  7   force =     0.00000000    0.00000000    0.00000000
     atom   10 type  7   force =     0.00000000    0.00000000    0.00000000
     atom   11 type  7   force =     0.00000000    0.00000000    0.00000000
     atom   12 type  7   force =     0.00000000    0.00000000    0.00000000
     atom   13 type  7   force =     0.00000000    0.00000000    0.00000000
     atom   14 type  7   force =     0.00000000    0.00000000    0.00000000
     atom   15 type  1   force =     0.00000000    0.00000000    0.00000000
     atom   16 type  1   force =     0.00000000    0.00000000    0.00000000
     atom   17 type  6   force =     0.00000000    0.00000000    0.00000000
     atom   18 type  6   force =     0.00000000    0.00000000    0.00000000
     atom   19 type  6   force =     0.00000000    0.00000000    0.00000000
     atom   20 type  6   force =     0.00000000    0.00000000    0.00000000
     atom   21 type  6   force =     0.00000000    0.00000000    0.00000000
     atom   22 type  6   force =     0.00000000    0.00000000    0.00000000
     atom   23 type  6   force =     0.00000000    0.00000000    0.00000000
     atom   24 type  6   force =     0.00000000    0.00000000    0.00000000
     atom   25 type  6   force =     0.00000000    0.00000000    0.00000000
     atom   26 type  6   force =     0.00000000    0.00000000    0.00000000
     atom   27 type  6   force =     0.00000000    0.00000000    0.00000000
     atom   28 type  6   force =     0.00000000    0.00000000    0.00000000
     atom   29 type  6   force =     0.00000000    0.00000000    0.00000000
     atom   30 type  6   force =     0.00000000    0.00000000    0.00000000
     atom   31 type  6   force =     0.00000000    0.00000000    0.00000000
     atom   32 type  6   force =     0.00000000    0.00000000    0.00000000
     atom   33 type  6   force =     0.00000000    0.00000000    0.00000000
     atom   34 type  6   force =     0.00000000    0.00000000    0.00000000
     atom   35 type  6   force =     0.00000000    0.00000000    0.00000000
     atom   36 type  6   force =     0.00000000    0.00000000    0.00000000
     atom   37 type  6   force =     0.00000000    0.00000000    0.00000000
     atom   38 type  6   force =     0.00000000    0.00000000    0.00000000
     atom   39 type  6   force =     0.00000000    0.00000000    0.00000000
     atom   40 type  6   force =     0.00000000    0.00000000    0.00000000
     atom   41 type  3   force =     0.00000000    0.00000000    0.00000000
     atom   42 type  3   force =     0.00000000    0.00000000    0.00000000
     atom   43 type  3   force =     0.00000000    0.00000000    0.00000000
     atom   44 type  3   force =     0.00000000    0.00000000    0.00000000
     The SCF correction term to forces
     atom    1 type  4   force =     0.00000000   -0.00001261    0.00000000
     atom    2 type  4   force =    -0.00000000    0.00001577    0.00000000
     atom    3 type  5   force =    -0.00000000   -0.00000331   -0.00000000
     atom    4 type  5   force =     0.00000000    0.00004387   -0.00000000
     atom    5 type  5   force =    -0.00000000   -0.00009442    0.00000000
     atom    6 type  5   force =    -0.00000000   -0.00000831   -0.00000000
     atom    7 type  5   force =     0.00000000    0.00003870   -0.00000000
     atom    8 type  2   force =    -0.00000000   -0.00000574    0.00000000
     atom    9 type  7   force =    -0.00000176    0.00000433    0.00000944
     atom   10 type  7   force =     0.00000176    0.00000433   -0.00000944
     atom   11 type  7   force =     0.00000258   -0.00000003   -0.00001789
     atom   12 type  7   force =    -0.00000258   -0.00000003    0.00001789
     atom   13 type  7   force =     0.00000627   -0.00000572    0.00002438
     atom   14 type  7   force =    -0.00000627   -0.00000572   -0.00002438
     atom   15 type  1   force =    -0.00000069    0.00000041   -0.00000913
     atom   16 type  1   force =     0.00000069    0.00000041    0.00000913
     atom   17 type  6   force =     0.00000508    0.00001471   -0.00000038
     atom   18 type  6   force =    -0.00000508    0.00001471    0.00000038
     atom   19 type  6   force =    -0.00000024   -0.00000461   -0.00000704
     atom   20 type  6   force =     0.00000024   -0.00000461    0.00000704
     atom   21 type  6   force =     0.00001302   -0.00002170    0.00001112
     atom   22 type  6   force =    -0.00001302   -0.00002170   -0.00001112
     atom   23 type  6   force =     0.00001281    0.00002797   -0.00003014
     atom   24 type  6   force =    -0.00001281    0.00002797    0.00003014
     atom   25 type  6   force =     0.00001167    0.00002749    0.00000100
     atom   26 type  6   force =    -0.00001167    0.00002749   -0.00000100
     atom   27 type  6   force =     0.00002064    0.00001034    0.00000643
     atom   28 type  6   force =    -0.00002064    0.00001034   -0.00000643
     atom   29 type  6   force =     0.00000127    0.00000167   -0.00003004
     atom   30 type  6   force =    -0.00000127    0.00000167    0.00003004
     atom   31 type  6   force =    -0.00001409    0.00000278    0.00005165
     atom   32 type  6   force =     0.00001409    0.00000278   -0.00005165
     atom   33 type  6   force =     0.00003093   -0.00002261    0.00002625
     atom   34 type  6   force =    -0.00003093   -0.00002261   -0.00002625
     atom   35 type  6   force =     0.00002882   -0.00002861   -0.00001333
     atom   36 type  6   force =    -0.00002882   -0.00002861    0.00001333
     atom   37 type  6   force =    -0.00000293   -0.00000605    0.00005836
     atom   38 type  6   force =     0.00000293   -0.00000605   -0.00005836
     atom   39 type  6   force =    -0.00000248   -0.00000306    0.00000995
     atom   40 type  6   force =     0.00000248   -0.00000306   -0.00000995
     atom   41 type  3   force =    -0.00000089   -0.00000005    0.00000770
     atom   42 type  3   force =     0.00000089   -0.00000005   -0.00000770
     atom   43 type  3   force =    -0.00000014    0.00000021    0.00000067
     atom   44 type  3   force =     0.00000014    0.00000021   -0.00000067

     Dispersion contribution to forces:
     atom    1 type  4   force =    -0.00000000    0.00225153    0.00000000
     atom    2 type  4   force =     0.00000000   -0.00171729    0.00000000
     atom    3 type  5   force =    -0.00000000    0.00058523    0.00000000
     atom    4 type  5   force =    -0.00000000   -0.00217703    0.00000000
     atom    5 type  5   force =     0.00000000    0.00183347    0.00000000
     atom    6 type  5   force =    -0.00000000    0.00372374    0.00000000
     atom    7 type  5   force =     0.00000000   -0.00434451    0.00000000
     atom    8 type  2   force =    -0.00000000    0.00091239    0.00000000
     atom    9 type  7   force =    -0.00005268   -0.00036800    0.00125219
     atom   10 type  7   force =     0.00005268   -0.00036800   -0.00125219
     atom   11 type  7   force =    -0.00014203    0.00006522   -0.00080223
     atom   12 type  7   force =     0.00014203    0.00006522    0.00080223
     atom   13 type  7   force =     0.00057872    0.00147199   -0.00077573
     atom   14 type  7   force =    -0.00057872    0.00147199    0.00077572
     atom   15 type  1   force =    -0.00053816   -0.00109056   -0.00135255
     atom   16 type  1   force =     0.00053816   -0.00109056    0.00135255
     atom   17 type  6   force =    -0.00011885    0.00026129    0.00045233
     atom   18 type  6   force =     0.00011885    0.00026129   -0.00045233
     atom   19 type  6   force =     0.00002057   -0.00026000   -0.00032078
     atom   20 type  6   force =    -0.00002057   -0.00026000    0.00032078
     atom   21 type  6   force =    -0.00027149   -0.00025127    0.00039527
     atom   22 type  6   force =     0.00027149   -0.00025127   -0.00039527
     atom   23 type  6   force =    -0.00006369   -0.00014585    0.00129822
     atom   24 type  6   force =     0.00006369   -0.00014585   -0.00129822
     atom   25 type  6   force =     0.00032501    0.00194868    0.00154143
     atom   26 type  6   force =    -0.00032501    0.00194868   -0.00154144
     atom   27 type  6   force =     0.00027105    0.00012961    0.00067026
     atom   28 type  6   force =    -0.00027105    0.00012961   -0.00067026
     atom   29 type  6   force =    -0.00008893    0.00014712   -0.00018050
     atom   30 type  6   force =     0.00008893    0.00014713    0.00018050
     atom   31 type  6   force =     0.00022993   -0.00036416   -0.00023641
     atom   32 type  6   force =    -0.00022993   -0.00036416    0.00023641
     atom   33 type  6   force =     0.00102743   -0.00145296    0.00122723
     atom   34 type  6   force =    -0.00102743   -0.00145296   -0.00122723
     atom   35 type  6   force =     0.00151667   -0.00032485   -0.00129587
     atom   36 type  6   force =    -0.00151667   -0.00032485    0.00129587
     atom   37 type  6   force =    -0.00002029    0.00009927   -0.00237142
     atom   38 type  6   force =     0.00002029    0.00009927    0.00237142
     atom   39 type  6   force =     0.00017273    0.00005604   -0.00251604
     atom   40 type  6   force =    -0.00017273    0.00005604    0.00251604
     atom   41 type  3   force =    -0.00114828   -0.00030523   -0.00067848
     atom   42 type  3   force =     0.00114828   -0.00030523    0.00067848
     atom   43 type  3   force =     0.00032645   -0.00015011    0.00092414
     atom   44 type  3   force =    -0.00032645   -0.00015011   -0.00092414

     Total force =     0.004397     Total SCF correction =     0.000216

     Total Dispersion Force =     0.011576

     Computing stress (Cartesian axis) and pressure

          total   stress  (Ry/bohr**3)                   (kbar)     P=       -3.15
  -0.00003400   0.00000000   0.00000331           -5.00        0.00        0.49
   0.00000000  -0.00002441   0.00000000            0.00       -3.59        0.00
   0.00000331   0.00000000  -0.00000576            0.49        0.00       -0.85

     kinetic stress (kbar)  20947.79      0.00     12.37
                                0.00  20949.08      0.00
                               12.37      0.00  20667.38

     local   stress (kbar) -39788.86      0.00    100.44
                                0.00 -39458.17      0.00
                              100.44      0.00  18295.39

     nonloc. stress (kbar)   3939.81      0.00      0.42
                                0.00   3941.23      0.00
                                0.42      0.00   3922.89

     hartree stress (kbar)  22645.91     -0.00    -43.54
                               -0.00  22493.74      0.00
                              -43.54      0.00  -5743.06

     exc-cor stress (kbar)  -2932.55     -0.00     -0.05
                               -0.00  -2932.79     -0.00
                               -0.05     -0.00  -2929.57

     corecor stress (kbar)  -1932.70      0.00     -0.06
                                0.00  -1932.81      0.00
                               -0.06      0.00  -1934.42

     ewald   stress (kbar)  -2854.65      0.00    -69.10
                                0.00  -3034.06     -0.00
                              -69.10     -0.00 -32250.44

     hubbard stress (kbar)      0.00      0.00      0.00
                                0.00      0.00      0.00
                                0.00      0.00      0.00

     DFT-D   stress (kbar)    -29.75      0.00      0.01
                                0.00    -29.81     -0.00
                                0.01     -0.00    -29.01

     XDM     stress (kbar)      0.00      0.00      0.00
                                0.00      0.00      0.00
                                0.00      0.00      0.00

     dft-nl  stress (kbar)      0.00      0.00      0.00
                                0.00      0.00      0.00
                                0.00      0.00      0.00

     TS-vdW  stress (kbar)      0.00      0.00      0.00
                                0.00      0.00      0.00
                                0.00      0.00      0.00

     MDB     stress (kbar)      0.00      0.00      0.00
                                0.00      0.00      0.00
                                0.00      0.00      0.00

     3D-RISM stress (kbar)      0.00      0.00      0.00
                                0.00      0.00      0.00
                                0.00      0.00      0.00

     Energy error            =      5.1E-05 Ry
     Gradient error          =      9.7E-04 Ry/Bohr

     bfgs converged in  11 scf cycles and  10 bfgs steps
     (criteria: energy <  1.0E-04 Ry, force <  1.0E-03 Ry/Bohr)

     End of BFGS Geometry Optimization

     Final energy             =   -2631.3420742623 Ry

     File ./temp/phl-fe1.bfgs deleted, as requested
Begin final coordinates

ATOMIC_POSITIONS (crystal)
K                0.0000000000        0.4954640025        0.0000000000
K                0.5000000000        0.0029697616        0.0000000000
Mg               0.0000000000        0.0034602117        0.5000000000
Mg               0.0000000000        0.3341929512        0.5000000000
Mg               0.0000000000        0.6624369426        0.5000000000
Mg               0.5000000000        0.8332019639        0.5000000000
Mg               0.5000000000        0.1738754383        0.5000000000
Fe               0.5000000000        0.4985830897        0.5000000000
Si               0.0822086667        0.1651082621        0.2234228009
Si               0.9177913183        0.1651082621        0.7765772141
Si               0.9334180095        0.8340519422        0.7709341537
Si               0.0665819905        0.8340519422        0.2290658463
Si               0.5646972042        0.6656721310        0.2261584892
Si               0.4353027958        0.6656721310        0.7738415408
Al               0.4177946378        0.3328628085        0.7752795344
Al               0.5822053322        0.3328628085        0.2247204656
O                0.1260563831        0.1637117101        0.3858084132
O                0.8739435869        0.1637117101        0.6141915568
O                0.8741430455        0.8320255122        0.6098692012
O                0.1258569545        0.8320255122        0.3901307988
O                0.6274390104        0.6670668360        0.3883941754
O                0.3725609896        0.6670668360        0.6116057946
O                0.3646857505        0.3374192213        0.6024734798
O                0.6353142495        0.3374192213        0.3975265202
O                0.3435831369        0.2023394028        0.1664605961
O                0.6564168631        0.2023394028        0.8335393889
O                0.9931679798        0.9971517144        0.1680237530
O                0.0068320202        0.9971517144        0.8319762620
O                0.6791789311        0.7773767702        0.8308835984
O                0.3208210689        0.7773767702        0.1691164016
O                0.8189907125        0.7297184170        0.1677019660
O                0.1810092875        0.7297184170        0.8322980640
O                0.4910970539        0.5080614197        0.1599058109
O                0.5089029461        0.5080614197        0.8400941891
O                0.1437706731        0.2775885980        0.8393708471
O                0.8562293119        0.2775885980        0.1606291529
O                0.1390183891        0.5022356895        0.3949403580
O                0.8609815809        0.5022356895        0.6050596120
O                0.6316855322        0.9994679616        0.3965711771
O                0.3683144678        0.9994679616        0.6034288229
H                0.1252742042        0.4916032185        0.2994216715
H                0.8747257878        0.4916032185        0.7005783285
H                0.5955687516        0.0144961813        0.3013587539
H                0.4044312484        0.0144961813        0.6986412161
End final coordinates

     Writing all to output data dir ./temp/phl-fe1.save/ :
     XML data file, charge density, pseudopotentials, collected wavefunctions

     General routines

     Parallel routines

     PAW routines

   This run was terminated on:  15:14:34  19Dec2024

   JOB DONE.