     Program PWSCF v.7.3.1 starts on 26Feb2025 at  5:58:40

     Reading input from vc_relax.in

     Current dimensions of program PWSCF are:
     Max number of different atomic species (ntypx) = 10
     Max number of k-points (npk) =  40000
     Max angular momentum in pseudopotentials (lmaxx) =  4
     file Al.pbe-n-kjpaw_psl.1.0.0.UPF: wavefunction(s)  3S 3P renormalized
     file Fe.pbe-spn-kjpaw_psl.1.0.0.UPF: wavefunction(s)  3P 3D renormalized
     file Fe.pbe-spn-kjpaw_psl.1.0.0.UPF: wavefunction(s)  3P 3D renormalized
     file H.pbe-kjpaw_psl.1.0.0.UPF: wavefunction(s)  1S renormalized
     file K.pbe-spn-kjpaw_psl.1.0.0.UPF: wavefunction(s)  3S renormalized
     file Mg.pbe-spnl-kjpaw_psl.1.0.0.UPF: wavefunction(s)  2P renormalized
     file O.pbe-n-kjpaw_psl.1.0.0.UPF: wavefunction(s)  2S 2P renormalized
     file Si.pbe-n-kjpaw_psl.1.0.0.UPF: wavefunction(s)  3S 3P renormalized

     R & G space division:  proc/nbgrp/npool/nimage =       6
     Subspace diagonalization in iterative solution of the eigenvalue problem:
     one sub-group per band group will be used

     Using Slab Decomposition

     bravais-lattice index     =          -12
     lattice parameter (alat)  =      20.1351  a.u.
     unit-cell volume          =    6828.4878 (a.u.)^3
     number of atoms/cell      =           88
     number of atomic types    =            8
     number of electrons       =       524.00
     number of Kohn-Sham states=          314
     kinetic-energy cutoff     =      60.0000  Ry
     charge density cutoff     =     480.0000  Ry
     scf convergence threshold =      1.0E-06
     mixing beta               =       0.7000
     number of iterations used =            8  plain     mixing
     energy convergence thresh.=      1.0E-06
     force convergence thresh. =      1.0E-03
     press convergence thresh. =      5.0E-01
     Exchange-correlation= SLA  PW   PBX  PBC
                           (   1   4   3   4   0   0   0)
     nstep                     =           50

     celldm(1)=  20.135087  celldm(2)=   0.869801  celldm(3)=   0.977339
     celldm(4)=   0.000000  celldm(5)=  -0.178119  celldm(6)=   0.000000

     crystal axes: (cart. coord. in units of alat)
               a(1) = (   1.000000   0.000000   0.000000 )
               a(2) = (   0.000000   0.869801   0.000000 )
               a(3) = (  -0.174083   0.000000   0.961710 )

     reciprocal axes: (cart. coord. in units 2 pi/alat)
               b(1) = (  1.000000 -0.000000  0.181014 )
               b(2) = (  0.000000  1.149688 -0.000000 )
               b(3) = (  0.000000  0.000000  1.039814 )

     PseudoPot. # 1 for Al read from file:
     ./../../../pseudos/Al.pbe-n-kjpaw_psl.1.0.0.UPF
     MD5 check sum: 502b6b27b9c6270cab5dd1084b96fa6d
     Pseudo is Projector augmented-wave + core cor, Zval =  3.0
     Generated using &quot;atomic&quot; code by A. Dal Corso  v.6.3
     Shape of augmentation charge: PSQ
     Using radial grid of 1135 points,  6 beta functions with:
                l(1) =   0
                l(2) =   0
                l(3) =   1
                l(4) =   1
                l(5) =   2
                l(6) =   2
     Q(r) pseudized with 0 coefficients

     PseudoPot. # 2 for Fe read from file:
     ./../../../pseudos/Fe.pbe-spn-kjpaw_psl.1.0.0.UPF
     MD5 check sum: fc81f059e5c5069939230b1155715ae8
     Pseudo is Projector augmented-wave + core cor, Zval = 16.0
     Generated using &quot;atomic&quot; code by A. Dal Corso  v.6.3
     Shape of augmentation charge: PSQ
     Using radial grid of 1191 points,  6 beta functions with:
                l(1) =   0
                l(2) =   0
                l(3) =   1
                l(4) =   1
                l(5) =   2
                l(6) =   2
     Q(r) pseudized with 0 coefficients

[...]

     PseudoPot. # 4 for H  read from file:
     ./../../../pseudos/H.pbe-kjpaw_psl.1.0.0.UPF
     MD5 check sum: d81a744832360e4a8af0b0b5b123bc2a
     Pseudo is Projector augmented-wave, Zval =  1.0
     Generated using &quot;atomic&quot; code by A. Dal Corso  v.6.3MaX
     Shape of augmentation charge: PSQ
     Using radial grid of  929 points,  2 beta functions with:
                l(1) =   0
                l(2) =   0
     Q(r) pseudized with 0 coefficients

     PseudoPot. # 5 for K  read from file:
     ./../../../pseudos/K.pbe-spn-kjpaw_psl.1.0.0.UPF
     MD5 check sum: 34cc42130a09071ebe376fd42eb21491
     Pseudo is Projector augmented-wave + core cor, Zval =  9.0
     Generated using &quot;atomic&quot; code by A. Dal Corso  v.6.2.2
     Shape of augmentation charge: PSQ
     Using radial grid of 1165 points,  6 beta functions with:
                l(1) =   0
                l(2) =   0
                l(3) =   1
                l(4) =   1
                l(5) =   2
                l(6) =   2
     Q(r) pseudized with 0 coefficients

     PseudoPot. # 6 for Mg read from file:
     ./../../../pseudos/Mg.pbe-spnl-kjpaw_psl.1.0.0.UPF
     MD5 check sum: fda14e0d92a6a9a5ebed782e5a4b3067
     Pseudo is Projector augmented-wave + core cor, Zval = 10.0
     Generated using &quot;atomic&quot; code by A. Dal Corso  v.6.3
     Shape of augmentation charge: PSQ
     Using radial grid of 1129 points,  4 beta functions with:
                l(1) =   0
                l(2) =   0
                l(3) =   1
                l(4) =   1
     Q(r) pseudized with 0 coefficients

     PseudoPot. # 7 for O  read from file:
     ./../../../pseudos/O.pbe-n-kjpaw_psl.1.0.0.UPF
     MD5 check sum: e99d9cef9b487d1ca56f5b95ecd0fd7a
     Pseudo is Projector augmented-wave + core cor, Zval =  6.0
     Generated using &quot;atomic&quot; code by A. Dal Corso  v.6.3
     Shape of augmentation charge: PSQ
     Using radial grid of 1095 points,  4 beta functions with:
                l(1) =   0
                l(2) =   0
                l(3) =   1
                l(4) =   1
     Q(r) pseudized with 0 coefficients

     PseudoPot. # 8 for Si read from file:
     ./../../../pseudos/Si.pbe-n-kjpaw_psl.1.0.0.UPF
     MD5 check sum: c39c59da582df4a0d9f10159256ea34e
     Pseudo is Projector augmented-wave + core cor, Zval =  4.0
     Generated using &quot;atomic&quot; code by A. Dal Corso  v.6.3
     Shape of augmentation charge: PSQ
     Using radial grid of 1141 points,  6 beta functions with:
                l(1) =   0
                l(2) =   0
                l(3) =   1
                l(4) =   1
                l(5) =   2
                l(6) =   2
     Q(r) pseudized with 0 coefficients

     atomic species   valence    mass     pseudopotential
     Al                3.00    26.98154     Al( 1.00)
     Fe1              16.00    55.84500     Fe( 1.00)
     Fe2              16.00    55.84500     Fe( 1.00)
     H                 1.00     1.00794     H ( 1.00)
     K                 9.00    39.09830     K ( 1.00)
     Mg               10.00    24.30500     Mg( 1.00)
     O                 6.00    15.99940     O ( 1.00)
     Si                4.00    28.08550     Si( 1.00)

      2 Sym. Ops. (no inversion) found

                                    s                        frac. trans.

      isym =  1     identity

 cryst.   s( 1) = (     1          0          0      )
                  (     0          1          0      )
                  (     0          0          1      )

 cart.    s( 1) = (  1.0000000  0.0000000  0.0000000 )
                  (  0.0000000  1.0000000  0.0000000 )
                  (  0.0000000  0.0000000  1.0000000 )

      isym =  2     180 deg rotation - cart. axis [0,1,0]

[...]

     point group C_2  (2)
     there are  2 classes
     the character table:

       E     C2
A      1.00  1.00
B      1.00 -1.00

     the symmetry operations in each class and the name of the first element:

     E        1
          identity
     C2       2
          180 deg rotation - cart. axis [0,1,0]

   Cartesian axes

     site n.     atom                  positions (alat units)
         1        K      tau(   1) = (   0.0000000   0.4296389   0.0000000  )
         2        K      tau(   2) = (   0.5000000   0.4296389   0.0000000  )
         3        K      tau(   3) = (   0.2500001   0.0024501   0.0000000  )
         4        K      tau(   4) = (   0.7500001   0.0024501   0.0000000  )
         5        Mg     tau(   5) = (  -0.0870414   0.0055279   0.4808550  )
         6        Mg     tau(   6) = (   0.4129586   0.0055279   0.4808550  )
         7        Mg     tau(   7) = (  -0.0870414   0.5801280   0.4808550  )
         8        Mg     tau(   8) = (   0.4129586   0.5801280   0.4808550  )
         9        Mg     tau(   9) = (   0.1629587   0.4310949   0.4808550  )
        10        Mg     tau(  10) = (   0.6629587   0.4310949   0.4808550  )
        11        Mg     tau(  11) = (   0.1629587   0.7269300   0.4808550  )
        12        Mg     tau(  12) = (   0.6629587   0.7269300   0.4808550  )
        13        Mg     tau(  13) = (   0.1629587   0.1482588   0.4808550  )
        14        Mg     tau(  14) = (   0.6629587   0.1482588   0.4808550  )
        15        Si     tau(  15) = (   0.0074326   0.1420119   0.2164892  )
        16        Si     tau(  16) = (   0.5074326   0.1420119   0.2164892  )
        17        Si     tau(  17) = (   0.3184849   0.1420119   0.7452208  )
        18        Si     tau(  18) = (   0.8184849   0.1420119   0.7452208  )
        19        Si     tau(  19) = (   0.3331608   0.7257911   0.7377580  )
        20        Si     tau(  20) = (   0.8331608   0.7257911   0.7377580  )
        21        Si     tau(  21) = (  -0.0072433   0.7257911   0.2239520  )
        22        Si     tau(  22) = (   0.4927567   0.7257911   0.2239520  )
        23        Si     tau(  23) = (   0.2427667   0.5796705   0.2225784  )
        24        Si     tau(  24) = (   0.7427667   0.5796705   0.2225784  )
        25        Si     tau(  25) = (   0.0831508   0.5796705   0.7391315  )
        26        Si     tau(  26) = (   0.5831508   0.5796705   0.7391315  )
        27        Al     tau(  27) = (   0.0682443   0.2875617   0.7425041  )
        28        Al     tau(  28) = (   0.5682443   0.2875617   0.7425041  )
        29        Al     tau(  29) = (   0.2576732   0.2875617   0.2192058  )
        30        Al     tau(  30) = (   0.7576731   0.2875617   0.2192058  )
        31        O      tau(  31) = (   0.0017352   0.1371008   0.3693886  )
        32        O      tau(  32) = (   0.5017352   0.1371008   0.3693886  )
        33        O      tau(  33) = (   0.3241823   0.1371008   0.5923214  )
        34        O      tau(  34) = (   0.8241823   0.1371008   0.5923214  )
        35        O      tau(  35) = (   0.3309875   0.7260882   0.5856762  )
        36        O      tau(  36) = (   0.8309875   0.7260882   0.5856762  )
        37        O      tau(  37) = (  -0.0050700   0.7260882   0.3760337  )
        38        O      tau(  38) = (   0.4949300   0.7260882   0.3760337  )
        39        O      tau(  39) = (   0.2456591   0.5824087   0.3753945  )
        40        O      tau(  40) = (   0.7456591   0.5824087   0.3753945  )
        41        O      tau(  41) = (   0.0802583   0.5824087   0.5863155  )
        42        O      tau(  42) = (   0.5802583   0.5824087   0.5863155  )
[...]
     atom   50 type  7   force =     0.00000000    0.00000000    0.00000000
     atom   51 type  7   force =     0.00000000    0.00000000    0.00000000
     atom   52 type  7   force =     0.00000000    0.00000000    0.00000000
     atom   53 type  7   force =     0.00000000    0.00000000    0.00000000
     atom   54 type  7   force =     0.00000000    0.00000000    0.00000000
     atom   55 type  7   force =     0.00000000    0.00000000    0.00000000
     atom   56 type  7   force =     0.00000000    0.00000000    0.00000000
     atom   57 type  7   force =     0.00000000    0.00000000    0.00000000
     atom   58 type  7   force =     0.00000000    0.00000000    0.00000000
     atom   59 type  7   force =     0.00000000    0.00000000    0.00000000
     atom   60 type  7   force =     0.00000000    0.00000000    0.00000000
[...]
     atom   74 type  7   force =     0.00000000    0.00000000    0.00000000
     atom   75 type  7   force =     0.00000000    0.00000000    0.00000000
     atom   76 type  7   force =     0.00000000    0.00000000    0.00000000
     atom   77 type  7   force =     0.00000000    0.00000000    0.00000000
     atom   78 type  7   force =     0.00000000    0.00000000    0.00000000
     atom   79 type  4   force =     0.00000000    0.00000000    0.00000000
     atom   80 type  4   force =     0.00000000    0.00000000    0.00000000
     atom   81 type  4   force =     0.00000000    0.00000000    0.00000000
     atom   82 type  4   force =     0.00000000    0.00000000    0.00000000
     atom   83 type  4   force =     0.00000000    0.00000000    0.00000000
     atom   84 type  4   force =     0.00000000    0.00000000    0.00000000
     atom   85 type  4   force =     0.00000000    0.00000000    0.00000000
     atom   86 type  4   force =     0.00000000    0.00000000    0.00000000
     atom   87 type  2   force =     0.00000000    0.00000000    0.00000000
     atom   88 type  3   force =     0.00000000    0.00000000    0.00000000
     The SCF correction term to forces
     atom    1 type  5   force =    -0.00000000    0.00000324    0.00000000
     atom    2 type  5   force =    -0.00000000    0.00000756    0.00000000
     atom    3 type  5   force =     0.00000849   -0.00000548    0.00000459
     atom    4 type  5   force =    -0.00000849   -0.00000548   -0.00000459
     atom    5 type  6   force =     0.00000000   -0.00000805   -0.00000000
     atom    6 type  6   force =     0.00000000    0.00000379   -0.00000000
     atom    7 type  6   force =     0.00000000    0.00002370   -0.00000000
     atom    8 type  6   force =     0.00000000    0.00000851   -0.00000000
     atom    9 type  6   force =     0.00003623   -0.00000099    0.00000012
     atom   10 type  6   force =    -0.00003623   -0.00000099   -0.00000012
     atom   11 type  6   force =     0.00001478    0.00001452    0.00000897
     atom   12 type  6   force =    -0.00001478    0.00001452   -0.00000897
     atom   13 type  6   force =     0.00003531   -0.00000898    0.00000408
     atom   14 type  6   force =    -0.00003531   -0.00000898   -0.00000408
     atom   15 type  8   force =     0.00000391   -0.00000662   -0.00000242
     atom   16 type  8   force =    -0.00000413   -0.00000468    0.00001027
     atom   17 type  8   force =     0.00000413   -0.00000468   -0.00001027
     atom   18 type  8   force =    -0.00000391   -0.00000662    0.00000242
     atom   19 type  8   force =     0.00000154    0.00000217   -0.00000130
     atom   20 type  8   force =    -0.00000139    0.00000510    0.00000324
     atom   21 type  8   force =     0.00000139    0.00000510   -0.00000324
     atom   22 type  8   force =    -0.00000154    0.00000217    0.00000130
     atom   23 type  8   force =     0.00000797    0.00000301    0.00000158
     atom   24 type  8   force =    -0.00000733    0.00000551   -0.00000190
     atom   25 type  8   force =     0.00000733    0.00000551    0.00000190
     atom   26 type  8   force =    -0.00000797    0.00000301   -0.00000158
     atom   27 type  1   force =     0.00000549   -0.00000158    0.00000204
     atom   28 type  1   force =    -0.00000481   -0.00000188   -0.00000713
     atom   29 type  1   force =     0.00000481   -0.00000188    0.00000713
     atom   30 type  1   force =    -0.00000549   -0.00000158   -0.00000204
     atom   31 type  7   force =     0.00001331   -0.00001478   -0.00000764
     atom   32 type  7   force =    -0.00001191   -0.00000379    0.00000645
     atom   33 type  7   force =     0.00001191   -0.00000379   -0.00000645
     atom   34 type  7   force =    -0.00001331   -0.00001478    0.00000764
     atom   35 type  7   force =     0.00001040    0.00000697   -0.00000364
     atom   36 type  7   force =    -0.00000805    0.00001240    0.00000070
     atom   37 type  7   force =     0.00000805    0.00001240   -0.00000070
     atom   38 type  7   force =    -0.00001040    0.00000697    0.00000364
     atom   39 type  7   force =     0.00002334    0.00000330    0.00000240
     atom   40 type  7   force =    -0.00002166    0.00001326   -0.00000767
     atom   41 type  7   force =     0.00002166    0.00001326    0.00000767
     atom   42 type  7   force =    -0.00002334    0.00000330   -0.00000240
     atom   43 type  7   force =     0.00002895   -0.00001015    0.00000620
     atom   44 type  7   force =    -0.00002867   -0.00000822   -0.00000471
     atom   45 type  7   force =     0.00002867   -0.00000822    0.00000471
     atom   46 type  7   force =    -0.00002895   -0.00001015   -0.00000620
     atom   47 type  7   force =     0.00001391   -0.00000453    0.00000463
     atom   48 type  7   force =    -0.00001848   -0.00000797    0.00000569
     atom   49 type  7   force =     0.00001848   -0.00000797   -0.00000569
     atom   50 type  7   force =    -0.00001391   -0.00000453   -0.00000463
     atom   51 type  7   force =     0.00000286   -0.00000269   -0.00000338
     atom   52 type  7   force =     0.00000025    0.00000611    0.00001306
     atom   53 type  7   force =    -0.00000025    0.00000611   -0.00001306
     atom   54 type  7   force =    -0.00000286   -0.00000269    0.00000338
     atom   55 type  7   force =     0.00000922    0.00000061   -0.00000044
     atom   56 type  7   force =    -0.00001118    0.00000987    0.00000565
     atom   57 type  7   force =     0.00001118    0.00000987   -0.00000565
     atom   58 type  7   force =    -0.00000922    0.00000061    0.00000044
     atom   59 type  7   force =     0.00000670   -0.00000109    0.00000776
     atom   60 type  7   force =    -0.00000954    0.00001010   -0.00001282
[...]
     atom   74 type  7   force =    -0.00001571    0.00000526    0.00001643
     atom   75 type  7   force =     0.00001835    0.00000451    0.00000684
     atom   76 type  7   force =    -0.00001867   -0.00000499   -0.00000052
     atom   77 type  7   force =     0.00001867   -0.00000499    0.00000052
     atom   78 type  7   force =    -0.00001835    0.00000451   -0.00000684
     atom   79 type  4   force =     0.00000140   -0.00000036   -0.00000509
     atom   80 type  4   force =    -0.00000124    0.00000004    0.00000208
     atom   81 type  4   force =     0.00000124    0.00000004   -0.00000208
     atom   82 type  4   force =    -0.00000140   -0.00000036    0.00000509
     atom   83 type  4   force =     0.00000206    0.00000068   -0.00000012
     atom   84 type  4   force =    -0.00000214   -0.00000062   -0.00000037
     atom   85 type  4   force =     0.00000214   -0.00000062    0.00000037
     atom   86 type  4   force =    -0.00000206    0.00000068    0.00000012
     atom   87 type  2   force =     0.00000000   -0.00005373   -0.00000000
     atom   88 type  3   force =    -0.00000000   -0.00003097   -0.00000000

     DFT-D3 dispersion contribution to forces:
     atom    1 type  5   force =     0.00000001    0.00083323   -0.00000000
     atom    2 type  5   force =     0.00000001    0.00083321   -0.00000000
     atom    3 type  5   force =     0.00000002   -0.00056038    0.00000001
     atom    4 type  5   force =    -0.00000002   -0.00056038   -0.00000000
     atom    5 type  6   force =    -0.00000001    0.00068048    0.00000000
     atom    6 type  6   force =    -0.00000000    0.00068046    0.00000000
     atom    7 type  6   force =    -0.00000001   -0.00153955   -0.00000000
     atom    8 type  6   force =    -0.00000001   -0.00153951   -0.00000000
     atom    9 type  6   force =    -0.00000001   -0.00082146   -0.00000003
     atom   10 type  6   force =     0.00000002   -0.00082146    0.00000003
     atom   11 type  6   force =     0.00000007    0.00116141    0.00000003
     atom   12 type  6   force =    -0.00000006    0.00116141   -0.00000003
     atom   13 type  6   force =     0.00000008   -0.00003932    0.00000003
     atom   14 type  6   force =    -0.00000007   -0.00003932   -0.00000003
     atom   15 type  8   force =    -0.00003630   -0.00004161   -0.00007093
     atom   16 type  8   force =    -0.00003630   -0.00004161   -0.00007090
     atom   17 type  8   force =     0.00003630   -0.00004161    0.00007091
     atom   18 type  8   force =     0.00003630   -0.00004161    0.00007093
     atom   19 type  8   force =     0.00005716   -0.00003805    0.00014207
     atom   20 type  8   force =     0.00005715   -0.00003804    0.00014208
     atom   21 type  8   force =    -0.00005715   -0.00003804   -0.00014208
     atom   22 type  8   force =    -0.00005715   -0.00003805   -0.00014207
     atom   23 type  8   force =    -0.00015442    0.00012747   -0.00017029
     atom   24 type  8   force =    -0.00015444    0.00012746   -0.00017029
     atom   25 type  8   force =     0.00015444    0.00012746    0.00017029
     atom   26 type  8   force =     0.00015442    0.00012747    0.00017028
     atom   27 type  1   force =    -0.00001808    0.00007310   -0.00101970
     atom   28 type  1   force =    -0.00001811    0.00007311   -0.00101972
     atom   29 type  1   force =     0.00001811    0.00007311    0.00101972
     atom   30 type  1   force =     0.00001808    0.00007310    0.00101970
     atom   31 type  7   force =    -0.00000066   -0.00001184    0.00048365
     atom   32 type  7   force =    -0.00000065   -0.00001182    0.00048366
     atom   33 type  7   force =     0.00000065   -0.00001182   -0.00048366
     atom   34 type  7   force =     0.00000066   -0.00001184   -0.00048365
     atom   35 type  7   force =    -0.00000858    0.00001928   -0.00037771
     atom   36 type  7   force =    -0.00000855    0.00001927   -0.00037770
     atom   37 type  7   force =     0.00000855    0.00001927    0.00037770
     atom   38 type  7   force =     0.00000858    0.00001928    0.00037771
     atom   39 type  7   force =    -0.00000536   -0.00005539    0.00041717
     atom   40 type  7   force =    -0.00000536   -0.00005538    0.00041717
     atom   41 type  7   force =     0.00000536   -0.00005538   -0.00041717
     atom   42 type  7   force =     0.00000536   -0.00005539   -0.00041717
     atom   43 type  7   force =     0.00003818   -0.00003530    0.00008354
     atom   44 type  7   force =     0.00003822   -0.00003532    0.00008357
     atom   45 type  7   force =    -0.00003822   -0.00003532   -0.00008357
     atom   46 type  7   force =    -0.00003818   -0.00003530   -0.00008354
     atom   47 type  7   force =    -0.00022055    0.00105057    0.00021692
     atom   48 type  7   force =    -0.00022056    0.00105058    0.00021690
     atom   49 type  7   force =     0.00022056    0.00105058   -0.00021690
     atom   50 type  7   force =     0.00022055    0.00105057   -0.00021692
     atom   51 type  7   force =     0.00086156    0.00008836    0.00020234
     atom   52 type  7   force =     0.00086155    0.00008835    0.00020234
     atom   53 type  7   force =    -0.00086155    0.00008835   -0.00020233
     atom   54 type  7   force =    -0.00086156    0.00008836   -0.00020234
     atom   55 type  7   force =     0.00035634   -0.00049382   -0.00008331
     atom   56 type  7   force =     0.00035634   -0.00049384   -0.00008329
     atom   57 type  7   force =    -0.00035634   -0.00049384    0.00008329
     atom   58 type  7   force =    -0.00035634   -0.00049383    0.00008331
     atom   59 type  7   force =    -0.00022368    0.00030558    0.00008625
     atom   60 type  7   force =    -0.00022367    0.00030555    0.00008622
[...]
     atom   74 type  7   force =    -0.00007802    0.00013224    0.00052366
     atom   75 type  7   force =     0.00002661    0.00004521   -0.00048202
     atom   76 type  7   force =     0.00002662    0.00004522   -0.00048203
     atom   77 type  7   force =    -0.00002662    0.00004522    0.00048203
     atom   78 type  7   force =    -0.00002661    0.00004521    0.00048202
     atom   79 type  4   force =     0.00019844    0.00043598   -0.00013890
     atom   80 type  4   force =     0.00019844    0.00043594   -0.00013894
     atom   81 type  4   force =    -0.00019844    0.00043594    0.00013894
     atom   82 type  4   force =    -0.00019844    0.00043598    0.00013890
     atom   83 type  4   force =     0.00008619   -0.00051409   -0.00023253
     atom   84 type  4   force =     0.00008624   -0.00051412   -0.00023243
     atom   85 type  4   force =    -0.00008624   -0.00051412    0.00023243
     atom   86 type  4   force =    -0.00008619   -0.00051409    0.00023253
     atom   87 type  2   force =    -0.00000001    0.00034965   -0.00000000
     atom   88 type  3   force =    -0.00000001    0.00034954   -0.00000000

     Total force =     0.000800     Total SCF correction =     0.000171

     DFT-D3 dispersion Force =     0.006548
     SCF correction compared to forces is large: reduce conv_thr to get better values

     Computing stress (Cartesian axis) and pressure

          total   stress  (Ry/bohr**3)                   (kbar)     P=        0.17
   0.00000104   0.00000000   0.00000008            0.15        0.00        0.01
   0.00000000   0.00000164   0.00000000            0.00        0.24        0.00
   0.00000008   0.00000000   0.00000086            0.01        0.00        0.13

     kinetic stress (kbar)  20393.78      0.00     -4.44
                                0.00  20382.01      0.00
                               -4.44      0.00  20102.34

     local   stress (kbar) -42522.24      0.00    -93.11
                                0.00 -41954.01     -0.00
                              -93.11     -0.00  20973.55

     nonloc. stress (kbar)   3837.75      0.00     -4.53
                                0.00   3838.09      0.00
                               -4.53      0.00   3822.64

     hartree stress (kbar)  23886.45      0.00     35.96
                                0.00  23606.96      0.00
                               35.96      0.00  -7165.69

     exc-cor stress (kbar)  -2853.81      0.00      0.21
                                0.00  -2853.78      0.00
                                0.21      0.00  -2850.74

     corecor stress (kbar)  -1881.76     -0.00      0.25
                               -0.00  -1881.77     -0.00
                                0.25     -0.00  -1883.40

     ewald   stress (kbar)   -844.86     -0.00     65.59
                               -0.00  -1122.05      0.00
                               65.59      0.00 -32987.44

     hubbard stress (kbar)      0.00      0.00      0.00
                                0.00      0.00      0.00
                                0.00      0.00      0.00

     DFT-D   stress (kbar)    -15.17      0.00      0.08
                                0.00    -15.21     -0.00
                                0.08     -0.00    -11.13

     XDM     stress (kbar)      0.00      0.00      0.00
                                0.00      0.00      0.00
                                0.00      0.00      0.00

     dft-nl  stress (kbar)      0.00      0.00      0.00
                                0.00      0.00      0.00
                                0.00      0.00      0.00

     TS-vdW  stress (kbar)      0.00      0.00      0.00
                                0.00      0.00      0.00
                                0.00      0.00      0.00

     MDB     stress (kbar)      0.00      0.00      0.00
                                0.00      0.00      0.00
                                0.00      0.00      0.00

     3D-RISM stress (kbar)      0.00      0.00      0.00
                                0.00      0.00      0.00
                                0.00      0.00      0.00

     Writing all to output data dir ./temp/phl-fe1-fe2x2.save/ :
     XML data file, charge density, pseudopotentials, collected wavefunctions

     General routines

     Parallel routines

     PAW routines

   This run was terminated on:  23:34: 7  26Feb2025

   JOB DONE.