     Program PWSCF v.7.3.1 starts on 14Jan2025 at 14:30:33

     Reading input from vc_relax.in

     Current dimensions of program PWSCF are:
     Max number of different atomic species (ntypx) = 10
     Max number of k-points (npk) =  40000
     Max angular momentum in pseudopotentials (lmaxx) =  4
     file Al.pbe-n-kjpaw_psl.1.0.0.UPF: wavefunction(s)  3S 3P renormalized
     file Fe.pbe-spn-kjpaw_psl.1.0.0.UPF: wavefunction(s)  3P 3D renormalized
     file H.pbe-kjpaw_psl.1.0.0.UPF: wavefunction(s)  1S renormalized
     file K.pbe-spn-kjpaw_psl.1.0.0.UPF: wavefunction(s)  3S renormalized
     file Mg.pbe-spnl-kjpaw_psl.1.0.0.UPF: wavefunction(s)  2P renormalized
     file O.pbe-n-kjpaw_psl.1.0.0.UPF: wavefunction(s)  2S 2P renormalized
     file Si.pbe-n-kjpaw_psl.1.0.0.UPF: wavefunction(s)  3S 3P renormalized

     R & G space division:  proc/nbgrp/npool/nimage =       6
     Subspace diagonalization in iterative solution of the eigenvalue problem:
     one sub-group per band group will be used

     Using Slab Decomposition

     bravais-lattice index     =          -12
     lattice parameter (alat)  =      10.0136  a.u.
     unit-cell volume          =    3303.4414 (a.u.)^3
     number of atoms/cell      =           44
     number of atomic types    =            7
     number of electrons       =       262.00
     number of Kohn-Sham states=          157
     kinetic-energy cutoff     =      60.0000  Ry
     charge density cutoff     =     480.0000  Ry
     scf convergence threshold =      1.0E-06
     mixing beta               =       0.7000
     number of iterations used =            8  plain     mixing
     energy convergence thresh.=      1.0E-04
     force convergence thresh. =      1.0E-03
     press convergence thresh. =      5.0E-01
     Exchange-correlation= SLA  PW   PBX  PBC
                           (   1   4   3   4   0   0   0)
     nstep                     =           50

     celldm(1)=  10.013640  celldm(2)=   1.735306  celldm(3)=   1.926511
     celldm(4)=   0.000000  celldm(5)=  -0.177565  celldm(6)=   0.000000

     crystal axes: (cart. coord. in units of alat)
               a(1) = (   1.000000   0.000000   0.000000 )
               a(2) = (   0.000000   1.735306   0.000000 )
               a(3) = (  -0.342081   0.000000   1.895896 )

     reciprocal axes: (cart. coord. in units 2 pi/alat)
               b(1) = (  1.000000 -0.000000  0.180432 )
               b(2) = (  0.000000  0.576267 -0.000000 )
               b(3) = (  0.000000  0.000000  0.527455 )

     PseudoPot. # 1 for Al read from file:
     ./../../../pseudos/Al.pbe-n-kjpaw_psl.1.0.0.UPF
     MD5 check sum: 502b6b27b9c6270cab5dd1084b96fa6d
     Pseudo is Projector augmented-wave + core cor, Zval =  3.0
     Generated using &quot;atomic&quot; code by A. Dal Corso  v.6.3
     Shape of augmentation charge: PSQ
     Using radial grid of 1135 points,  6 beta functions with:
                l(1) =   0
                l(2) =   0
                l(3) =   1
                l(4) =   1
                l(5) =   2
                l(6) =   2
     Q(r) pseudized with 0 coefficients

     PseudoPot. # 2 for Fe read from file:
     ./../../../pseudos/Fe.pbe-spn-kjpaw_psl.1.0.0.UPF
     MD5 check sum: fc81f059e5c5069939230b1155715ae8
     Pseudo is Projector augmented-wave + core cor, Zval = 16.0
     Generated using &quot;atomic&quot; code by A. Dal Corso  v.6.3
     Shape of augmentation charge: PSQ
     Using radial grid of 1191 points,  6 beta functions with:
                l(1) =   0
                l(2) =   0
                l(3) =   1
                l(4) =   1
                l(5) =   2
                l(6) =   2
     Q(r) pseudized with 0 coefficients

     PseudoPot. # 3 for H  read from file:
     ./../../../pseudos/H.pbe-kjpaw_psl.1.0.0.UPF
     MD5 check sum: d81a744832360e4a8af0b0b5b123bc2a
     Pseudo is Projector augmented-wave, Zval =  1.0
     Generated using &quot;atomic&quot; code by A. Dal Corso  v.6.3MaX
     Shape of augmentation charge: PSQ
     Using radial grid of  929 points,  2 beta functions with:
                l(1) =   0
                l(2) =   0
     Q(r) pseudized with 0 coefficients

     PseudoPot. # 4 for K  read from file:
     ./../../../pseudos/K.pbe-spn-kjpaw_psl.1.0.0.UPF
     MD5 check sum: 34cc42130a09071ebe376fd42eb21491
     Pseudo is Projector augmented-wave + core cor, Zval =  9.0
     Generated using &quot;atomic&quot; code by A. Dal Corso  v.6.2.2
     Shape of augmentation charge: PSQ
     Using radial grid of 1165 points,  6 beta functions with:
                l(1) =   0
                l(2) =   0
                l(3) =   1
                l(4) =   1
                l(5) =   2
                l(6) =   2
     Q(r) pseudized with 0 coefficients

     PseudoPot. # 5 for Mg read from file:
     ./../../../pseudos/Mg.pbe-spnl-kjpaw_psl.1.0.0.UPF
     MD5 check sum: fda14e0d92a6a9a5ebed782e5a4b3067
     Pseudo is Projector augmented-wave + core cor, Zval = 10.0
     Generated using &quot;atomic&quot; code by A. Dal Corso  v.6.3
     Shape of augmentation charge: PSQ
     Using radial grid of 1129 points,  4 beta functions with:
                l(1) =   0
                l(2) =   0
                l(3) =   1
                l(4) =   1
     Q(r) pseudized with 0 coefficients

     PseudoPot. # 6 for O  read from file:
     ./../../../pseudos/O.pbe-n-kjpaw_psl.1.0.0.UPF
     MD5 check sum: e99d9cef9b487d1ca56f5b95ecd0fd7a
     Pseudo is Projector augmented-wave + core cor, Zval =  6.0
     Generated using &quot;atomic&quot; code by A. Dal Corso  v.6.3
     Shape of augmentation charge: PSQ
     Using radial grid of 1095 points,  4 beta functions with:
                l(1) =   0
                l(2) =   0
                l(3) =   1
                l(4) =   1
     Q(r) pseudized with 0 coefficients

     PseudoPot. # 7 for Si read from file:
     ./../../../pseudos/Si.pbe-n-kjpaw_psl.1.0.0.UPF
     MD5 check sum: c39c59da582df4a0d9f10159256ea34e
     Pseudo is Projector augmented-wave + core cor, Zval =  4.0
     Generated using &quot;atomic&quot; code by A. Dal Corso  v.6.3
     Shape of augmentation charge: PSQ
     Using radial grid of 1141 points,  6 beta functions with:
                l(1) =   0
                l(2) =   0
                l(3) =   1
                l(4) =   1
                l(5) =   2
                l(6) =   2
     Q(r) pseudized with 0 coefficients

     atomic species   valence    mass     pseudopotential
     Al                3.00    26.98154     Al( 1.00)
     Fe               16.00    55.84500     Fe( 1.00)
     H                 1.00     1.00794     H ( 1.00)
     K                 9.00    39.09830     K ( 1.00)
     Mg               10.00    24.30500     Mg( 1.00)
     O                 6.00    15.99940     O ( 1.00)
     Si                4.00    28.08550     Si( 1.00)

     Starting magnetic structure
     atomic species   magnetization
     Al              0.000
     Fe              0.300
     H               0.000
     K               0.000
     Mg              0.000
     O               0.000
     Si              0.000

      2 Sym. Ops. (no inversion) found

                                    s                        frac. trans.

      isym =  1     identity

 cryst.   s( 1) = (     1          0          0      )
                  (     0          1          0      )
                  (     0          0          1      )

 cart.    s( 1) = (  1.0000000  0.0000000 -0.0000000 )
                  (  0.0000000  1.0000000  0.0000000 )
                  (  0.0000000  0.0000000  1.0000000 )

      isym =  2     180 deg rotation - cart. axis [0,1,0]

[...]

     point group C_2  (2)
     there are  2 classes
     the character table:

       E     C2
A      1.00  1.00
B      1.00 -1.00

     the symmetry operations in each class and the name of the first element:

     E        1
          identity
     C2       2
          180 deg rotation - cart. axis [0,1,0]

   Cartesian axes

     site n.     atom                  positions (alat units)
         1        K      tau(   1) = (   0.0000000   0.8558199   0.0000000  )
         2        K      tau(   2) = (   0.5000000   0.0047280   0.0000000  )
         3        Mg     tau(   3) = (  -0.1710407   0.0080954   0.9479482  )
         4        Mg     tau(   4) = (  -0.1710407   0.5791405   0.9479482  )
         5        Mg     tau(   5) = (  -0.1710407   1.1540795   0.9479482  )
         6        Mg     tau(   6) = (   0.3289593   0.8554922   0.9479482  )
         7        Mg     tau(   7) = (   0.3289593   0.3038158   0.9479482  )
         8        Si     tau(   8) = (   0.0075518   0.2866368   0.4204177  )
         9        Si     tau(   9) = (   0.6503669   0.2866368   1.4754787  )
        10        Si     tau(  10) = (   0.6754912   1.4478696   1.4655995  )
        11        Si     tau(  11) = (  -0.0175726   1.4478696   0.4302970  )
        12        Si     tau(  12) = (   0.4835262   1.1551313   0.4268813  )
        13        Si     tau(  13) = (   0.1743925   1.1551313   1.4690150  )
        14        Al     tau(  14) = (   0.1496446   0.5741193   1.4723061  )
        15        Al     tau(  15) = (   0.5082741   0.5741193   0.4235903  )
        16        O      tau(  16) = (  -0.0033983   0.2843435   0.7285414  )
        17        O      tau(  17) = (   0.6613170   0.2843435   1.1673551  )
        18        O      tau(  18) = (   0.6784133   1.4461317   1.1605558  )
        19        O      tau(  19) = (  -0.0204946   1.4461317   0.7353406  )
        20        O      tau(  20) = (   0.4941039   1.1545067   0.7340168  )
        21        O      tau(  21) = (   0.1638148   1.1545067   1.1618796  )
        22        O      tau(  22) = (   0.1542855   0.5792222   1.1458086  )
        23        O      tau(  23) = (   0.5036332   0.5792222   0.7500879  )
        24        O      tau(  24) = (   0.2881073   0.3491904   0.3123936  )
        25        O      tau(  25) = (   0.3698114   0.3491904   1.5835028  )
        26        O      tau(  26) = (   0.9369785   1.7314990   0.3144590  )
        27        O      tau(  27) = (  -0.2790598   1.7314990   1.5814374  )
        28        O      tau(  28) = (   0.4027311   1.3439141   1.5756263  )
        29        O      tau(  29) = (   0.2551875   1.3439141   0.3202701  )
        30        O      tau(  30) = (   0.7533681   1.2710779   0.3128308  )
        31        O      tau(  31) = (  -0.0954494   1.2710779   1.5830655  )
        32        O      tau(  32) = (   0.4378223   0.8797336   0.3037249  )
        33        O      tau(  33) = (   0.2200964   0.8797336   1.5921715  )
        34        O      tau(  34) = (  -0.1464163   0.4825366   1.5954950  )
        35        O      tau(  35) = (   0.8043350   0.4825366   0.3004015  )
        36        O      tau(  36) = (  -0.0036327   0.8752244   0.7467485  )
        37        O      tau(  37) = (   0.6615514   0.8752244   1.1491479  )
        38        O      tau(  38) = (   0.4979626   0.0074378   0.7532512  )
        39        O      tau(  39) = (   0.1599561   0.0074378   1.1426451  )
        40        H      tau(  40) = (  -0.0033640   0.8560028   0.5656475  )
[...]
     The core correction contribution to forces
     atom    1 type  4   force =    -0.00000000   -0.00155149   -0.00000000
     atom    2 type  4   force =    -0.00000000    0.00159912    0.00000000
     atom    3 type  5   force =     0.00000000    0.00014473   -0.00000000
     atom    4 type  5   force =    -0.00000000    0.00033529   -0.00000000
     atom    5 type  5   force =     0.00000000   -0.00033215    0.00000000
     atom    6 type  5   force =     0.00000000   -0.00083135   -0.00000000
     atom    7 type  5   force =    -0.00000000    0.00047348   -0.00000000
     atom    8 type  7   force =     0.00214851    0.01022212    0.00583700
     atom    9 type  7   force =    -0.00214854    0.01022212   -0.00583695
     atom   10 type  7   force =     0.00100233    0.00371709   -0.01459090
     atom   11 type  7   force =    -0.00100233    0.00371708    0.01459095
     atom   12 type  7   force =    -0.00084014   -0.01230974    0.01039718
     atom   13 type  7   force =     0.00084015   -0.01230972   -0.01039727
     atom   14 type  1   force =    -0.00044615   -0.00209832   -0.01026463
     atom   15 type  1   force =     0.00044613   -0.00209831    0.01026470
     atom   16 type  6   force =    -0.00015097    0.00017844    0.00648391
     atom   17 type  6   force =     0.00015096    0.00017844   -0.00648391
     atom   18 type  6   force =     0.00077557    0.00002500   -0.00677789
     atom   19 type  6   force =    -0.00077557    0.00002500    0.00677789
     atom   20 type  6   force =     0.00076926   -0.00101202    0.00654311
     atom   21 type  6   force =    -0.00076926   -0.00101202   -0.00654311
     atom   22 type  6   force =     0.00005820    0.00011593   -0.00323756
     atom   23 type  6   force =    -0.00005819    0.00011593    0.00323756
     atom   24 type  6   force =     0.00455291   -0.00173757   -0.00578656
     atom   25 type  6   force =    -0.00455291   -0.00173757    0.00578654
     atom   26 type  6   force =    -0.00311518    0.00087969   -0.00723908
     atom   27 type  6   force =     0.00311517    0.00087969    0.00723905
     atom   28 type  6   force =    -0.00142179    0.00207383    0.00712522
     atom   29 type  6   force =     0.00142179    0.00207383   -0.00712524
     atom   30 type  6   force =     0.00071142   -0.00177548   -0.00764418
     atom   31 type  6   force =    -0.00071142   -0.00177548    0.00764416
     atom   32 type  6   force =    -0.00231102   -0.00359196   -0.00653119
     atom   33 type  6   force =     0.00231101   -0.00359196    0.00653120
     atom   34 type  6   force =     0.00109980    0.00415539    0.00638003
     atom   35 type  6   force =    -0.00109981    0.00415540   -0.00638001
     atom   36 type  6   force =    -0.00003678    0.00050649    0.01136218
     atom   37 type  6   force =     0.00003677    0.00050650   -0.01136221
     atom   38 type  6   force =     0.00172104   -0.00022335    0.01078468
     atom   39 type  6   force =    -0.00172100   -0.00022334   -0.01078466
     atom   40 type  3   force =     0.00000000    0.00000000    0.00000000
     atom   41 type  3   force =     0.00000000    0.00000000    0.00000000
     atom   42 type  3   force =     0.00000000    0.00000000    0.00000000
     atom   43 type  3   force =     0.00000000    0.00000000    0.00000000
     atom   44 type  2   force =    -0.00000000    0.00333690    0.00000000
     The Hubbard contrib.    to forces
     atom    1 type  4   force =     0.00000000    0.00000000    0.00000000
     atom    2 type  4   force =     0.00000000    0.00000000    0.00000000
     atom    3 type  5   force =     0.00000000    0.00000000    0.00000000
     atom    4 type  5   force =     0.00000000    0.00000000    0.00000000
     atom    5 type  5   force =     0.00000000    0.00000000    0.00000000
     atom    6 type  5   force =     0.00000000    0.00000000    0.00000000
     atom    7 type  5   force =     0.00000000    0.00000000    0.00000000
     atom    8 type  7   force =     0.00000000    0.00000000    0.00000000
     atom    9 type  7   force =     0.00000000    0.00000000    0.00000000
     atom   10 type  7   force =     0.00000000    0.00000000    0.00000000
     atom   11 type  7   force =     0.00000000    0.00000000    0.00000000
     atom   12 type  7   force =     0.00000000    0.00000000    0.00000000
     atom   13 type  7   force =     0.00000000    0.00000000    0.00000000
     atom   14 type  1   force =     0.00000000    0.00000000    0.00000000
     atom   15 type  1   force =     0.00000000    0.00000000    0.00000000
     atom   16 type  6   force =     0.00000000    0.00000000    0.00000000
     atom   17 type  6   force =     0.00000000    0.00000000    0.00000000
     atom   18 type  6   force =     0.00000000    0.00000000    0.00000000
     atom   19 type  6   force =     0.00000000    0.00000000    0.00000000
     atom   20 type  6   force =     0.00000000    0.00000000    0.00000000
     atom   21 type  6   force =     0.00000000    0.00000000    0.00000000
     atom   22 type  6   force =     0.00000000    0.00000000    0.00000000
     atom   23 type  6   force =     0.00000000    0.00000000    0.00000000
     atom   24 type  6   force =     0.00000000    0.00000000    0.00000000
     atom   25 type  6   force =     0.00000000    0.00000000    0.00000000
     atom   26 type  6   force =     0.00000000    0.00000000    0.00000000
     atom   27 type  6   force =     0.00000000    0.00000000    0.00000000
     atom   28 type  6   force =     0.00000000    0.00000000    0.00000000
     atom   29 type  6   force =     0.00000000    0.00000000    0.00000000
     atom   30 type  6   force =     0.00000000    0.00000000    0.00000000
     atom   31 type  6   force =     0.00000000    0.00000000    0.00000000
     atom   32 type  6   force =     0.00000000    0.00000000    0.00000000
     atom   33 type  6   force =     0.00000000    0.00000000    0.00000000
     atom   34 type  6   force =     0.00000000    0.00000000    0.00000000
     atom   35 type  6   force =     0.00000000    0.00000000    0.00000000
     atom   36 type  6   force =     0.00000000    0.00000000    0.00000000
     atom   37 type  6   force =     0.00000000    0.00000000    0.00000000
     atom   38 type  6   force =     0.00000000    0.00000000    0.00000000
     atom   39 type  6   force =     0.00000000    0.00000000    0.00000000
     atom   40 type  3   force =     0.00000000    0.00000000    0.00000000
     atom   41 type  3   force =     0.00000000    0.00000000    0.00000000
     atom   42 type  3   force =     0.00000000    0.00000000    0.00000000
     atom   43 type  3   force =     0.00000000    0.00000000    0.00000000
     atom   44 type  2   force =     0.00000000    0.00000000    0.00000000
     The SCF correction term to forces
     atom    1 type  4   force =    -0.00000000    0.00000877    0.00000000
     atom    2 type  4   force =    -0.00000000   -0.00000838   -0.00000000
     atom    3 type  5   force =    -0.00000000   -0.00000367    0.00000000
     atom    4 type  5   force =    -0.00000000   -0.00000570    0.00000000
     atom    5 type  5   force =    -0.00000000    0.00000994   -0.00000000
     atom    6 type  5   force =     0.00000000    0.00002469   -0.00000000
     atom    7 type  5   force =     0.00000000   -0.00001863   -0.00000000
     atom    8 type  7   force =     0.00000109   -0.00000266   -0.00000508
     atom    9 type  7   force =    -0.00000109   -0.00000266    0.00000508
     atom   10 type  7   force =    -0.00000132   -0.00000130    0.00000368
     atom   11 type  7   force =     0.00000132   -0.00000130   -0.00000368
     atom   12 type  7   force =    -0.00000128    0.00000503   -0.00000360
     atom   13 type  7   force =     0.00000128    0.00000503    0.00000360
     atom   14 type  1   force =     0.00000001   -0.00000082    0.00000829
     atom   15 type  1   force =    -0.00000001   -0.00000082   -0.00000829
     atom   16 type  6   force =     0.00000137   -0.00000876    0.00000744
     atom   17 type  6   force =    -0.00000137   -0.00000876   -0.00000744
     atom   18 type  6   force =    -0.00000207    0.00000047   -0.00000037
     atom   19 type  6   force =     0.00000207    0.00000047    0.00000037
     atom   20 type  6   force =    -0.00000245    0.00000926    0.00000866
     atom   21 type  6   force =     0.00000245    0.00000926   -0.00000866
     atom   22 type  6   force =     0.00000052   -0.00000218   -0.00000402
     atom   23 type  6   force =    -0.00000052   -0.00000218    0.00000402
     atom   24 type  6   force =    -0.00000331   -0.00001179   -0.00002012
     atom   25 type  6   force =     0.00000331   -0.00001179    0.00002012
     atom   26 type  6   force =     0.00000170   -0.00000999   -0.00001508
     atom   27 type  6   force =    -0.00000170   -0.00000999    0.00001508
     atom   28 type  6   force =     0.00000351    0.00000429    0.00001419
     atom   29 type  6   force =    -0.00000351    0.00000429   -0.00001419
     atom   30 type  6   force =     0.00000468    0.00000482   -0.00001620
     atom   31 type  6   force =    -0.00000468    0.00000482    0.00001620
     atom   32 type  6   force =    -0.00000508    0.00001015   -0.00001963
     atom   33 type  6   force =     0.00000508    0.00001015    0.00001963
     atom   34 type  6   force =    -0.00000659   -0.00000160    0.00002213
     atom   35 type  6   force =     0.00000659   -0.00000160   -0.00002213
     atom   36 type  6   force =     0.00000220    0.00000839   -0.00000278
     atom   37 type  6   force =    -0.00000220    0.00000839    0.00000278
     atom   38 type  6   force =    -0.00000098   -0.00000844    0.00000380
     atom   39 type  6   force =     0.00000098   -0.00000844   -0.00000380
     atom   40 type  3   force =     0.00000020    0.00000131    0.00000074
     atom   41 type  3   force =    -0.00000020    0.00000131   -0.00000074
     atom   42 type  3   force =     0.00000005   -0.00000154    0.00000245
     atom   43 type  3   force =    -0.00000005   -0.00000154   -0.00000245
     atom   44 type  2   force =     0.00000000   -0.00000226   -0.00000000

     DFT-D3 dispersion contribution to forces:
     atom    1 type  4   force =    -0.00000000    0.00098579   -0.00000000
     atom    2 type  4   force =    -0.00000000   -0.00077282    0.00000000
     atom    3 type  5   force =     0.00000000    0.00025765    0.00000000
     atom    4 type  5   force =     0.00000000    0.00070688   -0.00000000
     atom    5 type  5   force =     0.00000000   -0.00106067   -0.00000000
     atom    6 type  5   force =    -0.00000000   -0.00054860    0.00000000
     atom    7 type  5   force =    -0.00000000   -0.00019070   -0.00000000
     atom    8 type  7   force =     0.00000370    0.00000397   -0.00032173
     atom    9 type  7   force =    -0.00000370    0.00000397    0.00032173
     atom   10 type  7   force =    -0.00009866    0.00005208    0.00010817
     atom   11 type  7   force =     0.00009866    0.00005208   -0.00010817
     atom   12 type  7   force =    -0.00013885    0.00022017   -0.00004142
     atom   13 type  7   force =     0.00013885    0.00022017    0.00004142
     atom   14 type  1   force =     0.00002608    0.00011550   -0.00088224
     atom   15 type  1   force =    -0.00002608    0.00011550    0.00088224
     atom   16 type  6   force =    -0.00003314    0.00008080    0.00044546
     atom   17 type  6   force =     0.00003314    0.00008080   -0.00044546
     atom   18 type  6   force =    -0.00009518    0.00000476   -0.00042163
     atom   19 type  6   force =     0.00009518    0.00000476    0.00042163
     atom   20 type  6   force =    -0.00006194   -0.00003024    0.00049560
     atom   21 type  6   force =     0.00006194   -0.00003024   -0.00049560
     atom   22 type  6   force =    -0.00001898   -0.00003090    0.00007152
     atom   23 type  6   force =     0.00001898   -0.00003090   -0.00007152
     atom   24 type  6   force =    -0.00020194    0.00105431    0.00026537
     atom   25 type  6   force =     0.00020194    0.00105431   -0.00026537
     atom   26 type  6   force =     0.00086585    0.00009711    0.00018888
     atom   27 type  6   force =    -0.00086585    0.00009711   -0.00018887
     atom   28 type  6   force =     0.00030953   -0.00045588    0.00003855
     atom   29 type  6   force =    -0.00030953   -0.00045588   -0.00003855
     atom   30 type  6   force =    -0.00014672    0.00020415   -0.00005790
     atom   31 type  6   force =     0.00014672    0.00020415    0.00005790
     atom   32 type  6   force =     0.00096541   -0.00045101    0.00041785
     atom   33 type  6   force =    -0.00096541   -0.00045101   -0.00041785
     atom   34 type  6   force =     0.00068038   -0.00054603   -0.00044526
     atom   35 type  6   force =    -0.00068038   -0.00054603    0.00044526
     atom   36 type  6   force =    -0.00003195   -0.00004674   -0.00050262
     atom   37 type  6   force =     0.00003195   -0.00004674    0.00050262
     atom   38 type  6   force =    -0.00003127   -0.00000467   -0.00043745
     atom   39 type  6   force =     0.00003127   -0.00000467    0.00043745
     atom   40 type  3   force =    -0.00002596    0.00005817   -0.00029869
     atom   41 type  3   force =     0.00002596    0.00005817    0.00029869
     atom   42 type  3   force =     0.00014703   -0.00049747   -0.00012343
     atom   43 type  3   force =    -0.00014703   -0.00049747    0.00012343
     atom   44 type  2   force =    -0.00000000    0.00096631    0.00000000

     Total force =     0.002586     Total SCF correction =     0.000087

     DFT-D3 dispersion Force =     0.004333

     Computing stress (Cartesian axis) and pressure

     negative rho (up, down):  0.000E+00 3.597E-04
          total   stress  (Ry/bohr**3)                   (kbar)     P=       -0.75
  -0.00000532   0.00000000  -0.00000021           -0.78        0.00       -0.03
   0.00000000  -0.00000376   0.00000000            0.00       -0.55        0.00
  -0.00000021   0.00000000  -0.00000612           -0.03        0.00       -0.90

     kinetic stress (kbar)  20093.02      0.00     39.12
                                0.00  20124.52      0.00
                               39.12      0.00  19746.62

     local   stress (kbar) -40544.85      0.00    -93.81
                                0.00 -39894.74     -0.00
                              -93.81     -0.00  18922.18

     nonloc. stress (kbar)   3788.76      0.00     -6.27
                                0.00   3791.30      0.00
                               -6.27      0.00   3780.52

     hartree stress (kbar)  22858.19      0.00     33.55
                                0.00  22528.71     -0.00
                               33.55     -0.00  -6235.53

     exc-cor stress (kbar)  -2815.76      0.00      0.39
                                0.00  -2815.58      0.00
                                0.39      0.00  -2812.83

     corecor stress (kbar)  -1854.72     -0.00     -0.21
                               -0.00  -1855.08     -0.00
                               -0.21     -0.00  -1855.99

     ewald   stress (kbar)  -1510.79     -0.00     27.13
                               -0.00  -1864.92      0.00
                               27.13      0.00 -31534.94

     hubbard stress (kbar)      0.00      0.00      0.00
                                0.00      0.00      0.00
                                0.00      0.00      0.00

     DFT-D   stress (kbar)    -14.64     -0.00      0.07
                               -0.00    -14.76     -0.00
                                0.07     -0.00    -10.93

     XDM     stress (kbar)      0.00      0.00      0.00
                                0.00      0.00      0.00
                                0.00      0.00      0.00

     dft-nl  stress (kbar)      0.00      0.00      0.00
                                0.00      0.00      0.00
                                0.00      0.00      0.00

     TS-vdW  stress (kbar)      0.00      0.00      0.00
                                0.00      0.00      0.00
                                0.00      0.00      0.00

     MDB     stress (kbar)      0.00      0.00      0.00
                                0.00      0.00      0.00
                                0.00      0.00      0.00

     3D-RISM stress (kbar)      0.00      0.00      0.00
                                0.00      0.00      0.00
                                0.00      0.00      0.00

     Writing all to output data dir ./temp/phl-fe1-fe5.save/ :
     XML data file, charge density, pseudopotentials, collected wavefunctions

     General routines

     Parallel routines

     PAW routines

   This run was terminated on:   3:35: 1  16Jan2025

   JOB DONE.