     Program PWSCF v.7.3.1 starts on 27Feb2025 at 16: 1: 8

     Reading input from relax.in

     Current dimensions of program PWSCF are:
     Max number of different atomic species (ntypx) = 10
     Max number of k-points (npk) =  40000
     Max angular momentum in pseudopotentials (lmaxx) =  4
     file Al.pbe-n-kjpaw_psl.1.0.0.UPF: wavefunction(s)  3S 3P renormalized
     file Ti.pbe-spn-kjpaw_psl.1.0.0.UPF: wavefunction(s)  3S 3P 3D renormalized
     file H.pbe-kjpaw_psl.1.0.0.UPF: wavefunction(s)  1S renormalized
     file K.pbe-spn-kjpaw_psl.1.0.0.UPF: wavefunction(s)  3S renormalized
     file Mg.pbe-spnl-kjpaw_psl.1.0.0.UPF: wavefunction(s)  2P renormalized
     file O.pbe-n-kjpaw_psl.1.0.0.UPF: wavefunction(s)  2S 2P renormalized
     file Si.pbe-n-kjpaw_psl.1.0.0.UPF: wavefunction(s)  3S 3P renormalized

     R & G space division:  proc/nbgrp/npool/nimage =       6
     Subspace diagonalization in iterative solution of the eigenvalue problem:
     one sub-group per band group will be used

     Using Slab Decomposition

     bravais-lattice index     =          -12
     lattice parameter (alat)  =      10.0136  a.u.
     unit-cell volume          =    3303.4414 (a.u.)^3
     number of atoms/cell      =           44
     number of atomic types    =            7
     number of electrons       =       258.00
     number of Kohn-Sham states=          155
     kinetic-energy cutoff     =      60.0000  Ry
     charge density cutoff     =     480.0000  Ry
     scf convergence threshold =      1.0E-06
     mixing beta               =       0.7000
     number of iterations used =            8  plain     mixing
     energy convergence thresh.=      1.0E-04
     force convergence thresh. =      1.0E-03
     Exchange-correlation= SLA  PW   PBX  PBC
                           (   1   4   3   4   0   0   0)
     nstep                     =           50

     celldm(1)=  10.013640  celldm(2)=   1.735306  celldm(3)=   1.926511
     celldm(4)=   0.000000  celldm(5)=  -0.177565  celldm(6)=   0.000000

     crystal axes: (cart. coord. in units of alat)
               a(1) = (   1.000000   0.000000   0.000000 )
               a(2) = (   0.000000   1.735306   0.000000 )
               a(3) = (  -0.342081   0.000000   1.895896 )

     reciprocal axes: (cart. coord. in units 2 pi/alat)
               b(1) = (  1.000000 -0.000000  0.180432 )
               b(2) = (  0.000000  0.576267 -0.000000 )
               b(3) = (  0.000000  0.000000  0.527455 )

     PseudoPot. # 1 for Al read from file:
     ./../../../pseudos/Al.pbe-n-kjpaw_psl.1.0.0.UPF
     MD5 check sum: 502b6b27b9c6270cab5dd1084b96fa6d
     Pseudo is Projector augmented-wave + core cor, Zval =  3.0
     Generated using &quot;atomic&quot; code by A. Dal Corso  v.6.3
     Shape of augmentation charge: PSQ
     Using radial grid of 1135 points,  6 beta functions with:
                l(1) =   0
                l(2) =   0
                l(3) =   1
                l(4) =   1
                l(5) =   2
                l(6) =   2
     Q(r) pseudized with 0 coefficients

     PseudoPot. # 2 for Ti read from file:
     ./../../../pseudos/Ti.pbe-spn-kjpaw_psl.1.0.0.UPF
     MD5 check sum: 01f69b0d8ba4438b2e03ac6ea4af1c0b
     Pseudo is Projector augmented-wave + core cor, Zval = 12.0
     Generated using &quot;atomic&quot; code by A. Dal Corso  v.6.2.2
     Shape of augmentation charge: PSQ
     Using radial grid of 1177 points,  6 beta functions with:
                l(1) =   0
                l(2) =   0
                l(3) =   1
                l(4) =   1
                l(5) =   2
                l(6) =   2
     Q(r) pseudized with 0 coefficients

     PseudoPot. # 3 for H  read from file:
     ./../../../pseudos/H.pbe-kjpaw_psl.1.0.0.UPF
     MD5 check sum: d81a744832360e4a8af0b0b5b123bc2a
     Pseudo is Projector augmented-wave, Zval =  1.0
     Generated using &quot;atomic&quot; code by A. Dal Corso  v.6.3MaX
     Shape of augmentation charge: PSQ
     Using radial grid of  929 points,  2 beta functions with:
                l(1) =   0
                l(2) =   0
     Q(r) pseudized with 0 coefficients

     PseudoPot. # 4 for K  read from file:
     ./../../../pseudos/K.pbe-spn-kjpaw_psl.1.0.0.UPF
     MD5 check sum: 34cc42130a09071ebe376fd42eb21491
     Pseudo is Projector augmented-wave + core cor, Zval =  9.0
     Generated using &quot;atomic&quot; code by A. Dal Corso  v.6.2.2
     Shape of augmentation charge: PSQ
     Using radial grid of 1165 points,  6 beta functions with:
                l(1) =   0
                l(2) =   0
                l(3) =   1
                l(4) =   1
                l(5) =   2
                l(6) =   2
     Q(r) pseudized with 0 coefficients

     PseudoPot. # 5 for Mg read from file:
     ./../../../pseudos/Mg.pbe-spnl-kjpaw_psl.1.0.0.UPF
     MD5 check sum: fda14e0d92a6a9a5ebed782e5a4b3067
     Pseudo is Projector augmented-wave + core cor, Zval = 10.0
     Generated using &quot;atomic&quot; code by A. Dal Corso  v.6.3
     Shape of augmentation charge: PSQ
     Using radial grid of 1129 points,  4 beta functions with:
                l(1) =   0
                l(2) =   0
                l(3) =   1
                l(4) =   1
     Q(r) pseudized with 0 coefficients

     PseudoPot. # 6 for O  read from file:
     ./../../../pseudos/O.pbe-n-kjpaw_psl.1.0.0.UPF
     MD5 check sum: e99d9cef9b487d1ca56f5b95ecd0fd7a
     Pseudo is Projector augmented-wave + core cor, Zval =  6.0
     Generated using &quot;atomic&quot; code by A. Dal Corso  v.6.3
     Shape of augmentation charge: PSQ
     Using radial grid of 1095 points,  4 beta functions with:
                l(1) =   0
                l(2) =   0
                l(3) =   1
                l(4) =   1
     Q(r) pseudized with 0 coefficients

     PseudoPot. # 7 for Si read from file:
     ./../../../pseudos/Si.pbe-n-kjpaw_psl.1.0.0.UPF
     MD5 check sum: c39c59da582df4a0d9f10159256ea34e
     Pseudo is Projector augmented-wave + core cor, Zval =  4.0
     Generated using &quot;atomic&quot; code by A. Dal Corso  v.6.3
     Shape of augmentation charge: PSQ
     Using radial grid of 1141 points,  6 beta functions with:
                l(1) =   0
                l(2) =   0
                l(3) =   1
                l(4) =   1
                l(5) =   2
                l(6) =   2
     Q(r) pseudized with 0 coefficients

     atomic species   valence    mass     pseudopotential
     Al                3.00    26.98154     Al( 1.00)
     Ti               12.00    47.86700     Ti( 1.00)
     H                 1.00     1.00794     H ( 1.00)
     K                 9.00    39.09830     K ( 1.00)
     Mg               10.00    24.30500     Mg( 1.00)
     O                 6.00    15.99940     O ( 1.00)
     Si                4.00    28.08550     Si( 1.00)

     Starting magnetic structure
     atomic species   magnetization
     Al              0.000
     Ti              0.300
     H               0.000
     K               0.000
     Mg              0.000
     O               0.000
     Si              0.000

      2 Sym. Ops. (no inversion) found

                                    s                        frac. trans.

      isym =  1     identity

 cryst.   s( 1) = (     1          0          0      )
                  (     0          1          0      )
                  (     0          0          1      )

 cart.    s( 1) = (  1.0000000  0.0000000 -0.0000000 )
                  (  0.0000000  1.0000000  0.0000000 )
                  (  0.0000000  0.0000000  1.0000000 )

      isym =  2     180 deg rotation - cart. axis [0,1,0]

 cryst.   s( 2) = (    -1          0          0      )
                  (     0          1          0      )
                  (     0          0         -1      )

 cart.    s( 2) = ( -1.0000000  0.0000000  0.0000000 )
                  (  0.0000000  1.0000000  0.0000000 )
                  (  0.0000000  0.0000000 -1.0000000 )

     point group C_2  (2)
     there are  2 classes
     the character table:

       E     C2
A      1.00  1.00
B      1.00 -1.00

     the symmetry operations in each class and the name of the first element:

     E        1
          identity
     C2       2
          180 deg rotation - cart. axis [0,1,0]

   Cartesian axes

     site n.     atom                  positions (alat units)
         1        K      tau(   1) = (   0.0000000   0.8559224   0.0000000  )
         2        K      tau(   2) = (   0.5000000   0.0093568   0.0000000  )
         3        Mg     tau(   3) = (  -0.1710407   0.5780843   0.9479482  )
         4        Mg     tau(   4) = (  -0.1710407   1.1543881   0.9479482  )
         5        Mg     tau(   5) = (   0.3289593   0.8562226   0.9479482  )
         6        Mg     tau(   6) = (   0.3289593   1.4480089   0.9479482  )
         7        Mg     tau(   7) = (   0.3289593   0.2986375   0.9479482  )
         8        Si     tau(   8) = (   0.0066674   0.2865251   0.4219393  )
         9        Si     tau(   9) = (   0.6512512   0.2865251   1.4739571  )
        10        Si     tau(  10) = (   0.6701371   1.4476688   1.4628623  )
        11        Si     tau(  11) = (  -0.0122184   1.4476688   0.4330341  )
        12        Si     tau(  12) = (   0.4872056   1.1568454   0.4292651  )
        13        Si     tau(  13) = (   0.1707131   1.1568454   1.4666313  )
        14        Al     tau(  14) = (   0.1506005   0.5746762   1.4713786  )
        15        Al     tau(  15) = (   0.5073182   0.5746762   0.4245178  )
        16        O      tau(  16) = (  -0.0043508   0.2833738   0.7297400  )
        17        O      tau(  17) = (   0.6622695   0.2833738   1.1661564  )
        18        O      tau(  18) = (   0.6658139   1.4451231   1.1576912  )
        19        O      tau(  19) = (  -0.0078952   1.4451231   0.7382052  )
        20        O      tau(  20) = (   0.4926234   1.1618863   0.7357690  )
        21        O      tau(  21) = (   0.1652953   1.1618863   1.1601274  )
        22        O      tau(  22) = (   0.1548298   0.5779784   1.1454267  )
        23        O      tau(  23) = (   0.5030889   0.5779784   0.7504697  )
        24        O      tau(  24) = (   0.2847398   0.3548857   0.3143567  )
        25        O      tau(  25) = (   0.3731789   0.3548857   1.5815397  )
        26        O      tau(  26) = (   0.9404978   1.7303189   0.3181314  )
        27        O      tau(  27) = (  -0.2825791   1.7303189   1.5777650  )
        28        O      tau(  28) = (   0.3988927   1.3439356   1.5754330  )
        29        O      tau(  29) = (   0.2590260   1.3439356   0.3204634  )
        30        O      tau(  30) = (   0.7582660   1.2710892   0.3185125  )
        31        O      tau(  31) = (  -0.1003473   1.2710892   1.5773839  )
        32        O      tau(  32) = (   0.4432368   0.8811364   0.3085875  )
        33        O      tau(  33) = (   0.2146819   0.8811364   1.5873090  )
        34        O      tau(  34) = (  -0.1423236   0.4782556   1.5925436  )
        35        O      tau(  35) = (   0.8002423   0.4782556   0.3033529  )
        36        O      tau(  36) = (  -0.0041068   0.8750247   0.7469263  )
[...]
     atom   10 type  7   force =    -0.00030794    0.00201808   -0.01262731
     atom   11 type  7   force =     0.00030794    0.00201808    0.01262731
     atom   12 type  7   force =    -0.00188908   -0.01210154    0.00977081
     atom   13 type  7   force =     0.00188909   -0.01210153   -0.00977085
     atom   14 type  1   force =    -0.00046035   -0.00206420   -0.00963086
     atom   15 type  1   force =     0.00046035   -0.00206420    0.00963086
     atom   16 type  6   force =     0.00025833    0.00130208    0.00600646
     atom   17 type  6   force =    -0.00025834    0.00130208   -0.00600646
     atom   18 type  6   force =    -0.00059745   -0.00115004   -0.00647765
     atom   19 type  6   force =     0.00059745   -0.00115004    0.00647765
     atom   20 type  6   force =     0.00011137   -0.00024580    0.00672778
     atom   21 type  6   force =    -0.00011137   -0.00024580   -0.00672778
     atom   22 type  6   force =     0.00004855    0.00012001   -0.00310964
     atom   23 type  6   force =    -0.00004855    0.00012001    0.00310964
     atom   24 type  6   force =     0.00472691   -0.00187748   -0.00597958
     atom   25 type  6   force =    -0.00472691   -0.00187748    0.00597956
     atom   26 type  6   force =    -0.00370659    0.00081957   -0.00681298
     atom   27 type  6   force =     0.00370659    0.00081957    0.00681297
     atom   28 type  6   force =    -0.00181517    0.00250691    0.00743776
     atom   29 type  6   force =     0.00181517    0.00250691   -0.00743776
     atom   30 type  6   force =     0.00087374   -0.00227166   -0.00752662
     atom   31 type  6   force =    -0.00087374   -0.00227166    0.00752662
     atom   32 type  6   force =    -0.00271740   -0.00352153   -0.00653296
     atom   33 type  6   force =     0.00271738   -0.00352153    0.00653297
     atom   34 type  6   force =     0.00114068    0.00420678    0.00659042
     atom   35 type  6   force =    -0.00114067    0.00420678   -0.00659042
     atom   36 type  6   force =     0.00012726    0.00054749    0.01109827
     atom   37 type  6   force =    -0.00012725    0.00054749   -0.01109827
     atom   38 type  6   force =    -0.00097573   -0.00096473    0.01080536
     atom   39 type  6   force =     0.00097574   -0.00096472   -0.01080534
     atom   40 type  3   force =     0.00000000    0.00000000    0.00000000
     atom   41 type  3   force =     0.00000000    0.00000000    0.00000000
     atom   42 type  3   force =     0.00000000    0.00000000    0.00000000
     atom   43 type  3   force =     0.00000000    0.00000000    0.00000000
     atom   44 type  2   force =     0.00000000   -0.00153269   -0.00000000
     The Hubbard contrib.    to forces
     atom    1 type  4   force =     0.00000000    0.00000000    0.00000000
     atom    2 type  4   force =     0.00000000    0.00000000    0.00000000
     atom    3 type  5   force =     0.00000000    0.00000000    0.00000000
     atom    4 type  5   force =     0.00000000    0.00000000    0.00000000
     atom    5 type  5   force =     0.00000000    0.00000000    0.00000000
     atom    6 type  5   force =     0.00000000    0.00000000    0.00000000
     atom    7 type  5   force =     0.00000000    0.00000000    0.00000000
     atom    8 type  7   force =     0.00000000    0.00000000    0.00000000
     atom    9 type  7   force =     0.00000000    0.00000000    0.00000000
     atom   10 type  7   force =     0.00000000    0.00000000    0.00000000
     atom   11 type  7   force =     0.00000000    0.00000000    0.00000000
     atom   12 type  7   force =     0.00000000    0.00000000    0.00000000
     atom   13 type  7   force =     0.00000000    0.00000000    0.00000000
     atom   14 type  1   force =     0.00000000    0.00000000    0.00000000
     atom   15 type  1   force =     0.00000000    0.00000000    0.00000000
     atom   16 type  6   force =     0.00000000    0.00000000    0.00000000
     atom   17 type  6   force =     0.00000000    0.00000000    0.00000000
     atom   18 type  6   force =     0.00000000    0.00000000    0.00000000
     atom   19 type  6   force =     0.00000000    0.00000000    0.00000000
     atom   20 type  6   force =     0.00000000    0.00000000    0.00000000
     atom   21 type  6   force =     0.00000000    0.00000000    0.00000000
     atom   22 type  6   force =     0.00000000    0.00000000    0.00000000
     atom   23 type  6   force =     0.00000000    0.00000000    0.00000000
     atom   24 type  6   force =     0.00000000    0.00000000    0.00000000
     atom   25 type  6   force =     0.00000000    0.00000000    0.00000000
     atom   26 type  6   force =     0.00000000    0.00000000    0.00000000
     atom   27 type  6   force =     0.00000000    0.00000000    0.00000000
     atom   28 type  6   force =     0.00000000    0.00000000    0.00000000
     atom   29 type  6   force =     0.00000000    0.00000000    0.00000000
     atom   30 type  6   force =     0.00000000    0.00000000    0.00000000
     atom   31 type  6   force =     0.00000000    0.00000000    0.00000000
     atom   32 type  6   force =     0.00000000    0.00000000    0.00000000
     atom   33 type  6   force =     0.00000000    0.00000000    0.00000000
     atom   34 type  6   force =     0.00000000    0.00000000    0.00000000
     atom   35 type  6   force =     0.00000000    0.00000000    0.00000000
     atom   36 type  6   force =     0.00000000    0.00000000    0.00000000
     atom   37 type  6   force =     0.00000000    0.00000000    0.00000000
     atom   38 type  6   force =     0.00000000    0.00000000    0.00000000
     atom   39 type  6   force =     0.00000000    0.00000000    0.00000000
     atom   40 type  3   force =     0.00000000    0.00000000    0.00000000
     atom   41 type  3   force =     0.00000000    0.00000000    0.00000000
     atom   42 type  3   force =     0.00000000    0.00000000    0.00000000
     atom   43 type  3   force =     0.00000000    0.00000000    0.00000000
     atom   44 type  2   force =     0.00000000    0.00000000    0.00000000
     The SCF correction term to forces
     atom    1 type  4   force =     0.00000000    0.00001420    0.00000000
     atom    2 type  4   force =     0.00000000   -0.00001615    0.00000000
     atom    3 type  5   force =     0.00000000   -0.00003039   -0.00000000
     atom    4 type  5   force =    -0.00000000    0.00000707   -0.00000000
     atom    5 type  5   force =    -0.00000000   -0.00004503    0.00000000
     atom    6 type  5   force =    -0.00000000   -0.00005123   -0.00000000
     atom    7 type  5   force =    -0.00000000    0.00002616    0.00000000
     atom    8 type  7   force =    -0.00000177   -0.00000008   -0.00001460
     atom    9 type  7   force =     0.00000177   -0.00000008    0.00001460
     atom   10 type  7   force =     0.00000135   -0.00000181    0.00001902
     atom   11 type  7   force =    -0.00000135   -0.00000181   -0.00001902
     atom   12 type  7   force =     0.00000014   -0.00000478   -0.00001027
     atom   13 type  7   force =    -0.00000014   -0.00000478    0.00001027
     atom   14 type  1   force =     0.00000005    0.00000386    0.00000491
     atom   15 type  1   force =    -0.00000005    0.00000386   -0.00000491
     atom   16 type  6   force =     0.00000108    0.00000991   -0.00002416
     atom   17 type  6   force =    -0.00000108    0.00000991    0.00002416
     atom   18 type  6   force =    -0.00000228   -0.00001340    0.00002972
     atom   19 type  6   force =     0.00000228   -0.00001340   -0.00002972
     atom   20 type  6   force =     0.00000071   -0.00002518   -0.00001748
     atom   21 type  6   force =    -0.00000071   -0.00002518    0.00001748
     atom   22 type  6   force =     0.00000078    0.00001745    0.00001389
     atom   23 type  6   force =    -0.00000078    0.00001745   -0.00001389
     atom   24 type  6   force =     0.00000092   -0.00000322   -0.00001516
     atom   25 type  6   force =    -0.00000092   -0.00000322    0.00001516
     atom   26 type  6   force =    -0.00000070   -0.00000349   -0.00002147
     atom   27 type  6   force =     0.00000070   -0.00000349    0.00002147
     atom   28 type  6   force =     0.00000226   -0.00000219    0.00002365
     atom   29 type  6   force =    -0.00000226   -0.00000219   -0.00002365
     atom   30 type  6   force =     0.00000279    0.00000310   -0.00001399
     atom   31 type  6   force =    -0.00000279    0.00000310    0.00001399
     atom   32 type  6   force =    -0.00000063    0.00000377   -0.00000243
     atom   33 type  6   force =     0.00000063    0.00000377    0.00000243
     atom   34 type  6   force =    -0.00000440   -0.00000087    0.00000750
     atom   35 type  6   force =     0.00000440   -0.00000087   -0.00000750
     atom   36 type  6   force =     0.00000520    0.00000444   -0.00002818
     atom   37 type  6   force =    -0.00000520    0.00000444    0.00002818
     atom   38 type  6   force =    -0.00000809   -0.00000261   -0.00002993
     atom   39 type  6   force =     0.00000809   -0.00000261    0.00002993
     atom   40 type  3   force =     0.00000023    0.00000089   -0.00000127
     atom   41 type  3   force =    -0.00000023    0.00000089    0.00000127
     atom   42 type  3   force =     0.00000034    0.00000013   -0.00000659
     atom   43 type  3   force =    -0.00000034    0.00000013    0.00000659
     atom   44 type  2   force =     0.00000000    0.00001487    0.00000000

     DFT-D3 dispersion contribution to forces:
     atom    1 type  4   force =    -0.00000000    0.00050317    0.00000000
     atom    2 type  4   force =     0.00000000   -0.00033686    0.00000000
     atom    3 type  5   force =    -0.00000000    0.00079801   -0.00000000
     atom    4 type  5   force =    -0.00000000   -0.00119344   -0.00000000
     atom    5 type  5   force =     0.00000000   -0.00055914    0.00000000
     atom    6 type  5   force =    -0.00000000    0.00107267    0.00000000
     atom    7 type  5   force =     0.00000000   -0.00014268   -0.00000000
     atom    8 type  7   force =    -0.00001967   -0.00014739   -0.00015967
     atom    9 type  7   force =     0.00001966   -0.00014739    0.00015967
     atom   10 type  7   force =     0.00013463    0.00020686    0.00006114
     atom   11 type  7   force =    -0.00013463    0.00020686   -0.00006114
     atom   12 type  7   force =    -0.00000870    0.00015877   -0.00019707
     atom   13 type  7   force =     0.00000870    0.00015877    0.00019707
     atom   14 type  1   force =     0.00002668    0.00006022   -0.00112447
     atom   15 type  1   force =    -0.00002668    0.00006022    0.00112447
     atom   16 type  6   force =    -0.00001585   -0.00006131    0.00047991
     atom   17 type  6   force =     0.00001585   -0.00006131   -0.00047991
     atom   18 type  6   force =     0.00003479    0.00010235   -0.00043245
     atom   19 type  6   force =    -0.00003479    0.00010235    0.00043245
     atom   20 type  6   force =    -0.00007165   -0.00013604    0.00034703
     atom   21 type  6   force =     0.00007165   -0.00013604   -0.00034703
     atom   22 type  6   force =     0.00006133    0.00007095    0.00015273
     atom   23 type  6   force =    -0.00006133    0.00007095   -0.00015273
     atom   24 type  6   force =    -0.00015389    0.00097325    0.00014584
     atom   25 type  6   force =     0.00015389    0.00097325   -0.00014584
     atom   26 type  6   force =     0.00083372    0.00006701    0.00006455
     atom   27 type  6   force =    -0.00083372    0.00006701   -0.00006455
     atom   28 type  6   force =     0.00042039   -0.00063792   -0.00016458
     atom   29 type  6   force =    -0.00042039   -0.00063792    0.00016458
     atom   30 type  6   force =    -0.00028097    0.00045312    0.00020170
     atom   31 type  6   force =     0.00028097    0.00045312   -0.00020170
     atom   32 type  6   force =     0.00086445   -0.00042158    0.00040074
     atom   33 type  6   force =    -0.00086445   -0.00042158   -0.00040074
     atom   34 type  6   force =     0.00060633   -0.00046529   -0.00036685
     atom   35 type  6   force =    -0.00060633   -0.00046529    0.00036685
     atom   36 type  6   force =    -0.00002677   -0.00005279   -0.00049782
     atom   37 type  6   force =     0.00002677   -0.00005279    0.00049782
     atom   38 type  6   force =     0.00025283    0.00002763   -0.00046746
     atom   39 type  6   force =    -0.00025283    0.00002763    0.00046746
     atom   40 type  3   force =     0.00003576    0.00009471   -0.00032833
     atom   41 type  3   force =    -0.00003576    0.00009471    0.00032833
     atom   42 type  3   force =    -0.00000838   -0.00039172   -0.00027407
     atom   43 type  3   force =     0.00000838   -0.00039172    0.00027407
     atom   44 type  2   force =     0.00000000    0.00005662   -0.00000000

     Total force =     0.004154     Total SCF correction =     0.000148

     DFT-D3 dispersion Force =     0.004319
     Energy error            =      2.8E-05 Ry
     Gradient error          =      9.6E-04 Ry/Bohr

     bfgs converged in  12 scf cycles and  11 bfgs steps
     (criteria: energy <  1.0E-04 Ry, force <  1.0E-03 Ry/Bohr)

     End of BFGS Geometry Optimization

     Final energy             =   -2485.8324987064 Ry

     File ./temp/phl-ti1-ti1.bfgs deleted, as requested
Begin final coordinates

ATOMIC_POSITIONS (crystal)
K                0.0000000000        0.4934118207        0.0000000000
K                0.5000000000        0.0041199781        0.0000000000
Mg              -0.0000000000        0.3350325521        0.5000000000
Mg              -0.0000000000        0.6626048188        0.5000000000
Mg               0.5000000000        0.4931310413        0.5000000000
Mg               0.5000000000        0.8322955481        0.5000000000
Mg               0.5000000000        0.1750819734        0.5000000000
Si               0.0843867334        0.1665202877        0.2200680848
Si               0.9156132526        0.1665202877        0.7799319452
Si               0.9333745972        0.8333677609        0.7732088337
Si               0.0666254028        0.8333677609        0.2267911663
Si               0.5642584361        0.6665787268        0.2250094468
Si               0.4357415639        0.6665787268        0.7749905382
Al               0.4149891518        0.3311198050        0.7773391042
Al               0.5850108482        0.3311198050        0.2226608958
O                0.1316113330        0.1709599932        0.3826172069
O                0.8683886370        0.1709599932        0.6173828221
O                0.8701969802        0.8261080399        0.6121369503
O                0.1298030198        0.8261080399        0.3878630497
O                0.6258283053        0.6693322379        0.3870012452
O                0.3741716947        0.6693322379        0.6129987548
O                0.3607451766        0.3333062000        0.6049350759
O                0.6392548234        0.3333062000        0.3950649241
O                0.3432288990        0.2033534516        0.1618840214
O                0.6567711010        0.2033534516        0.8381159486
O                0.9976690288        0.9974609583        0.1685223156
O                0.0023309712        0.9974609583        0.8314776694
O                0.6824996125        0.7751973304        0.8339628929
O                0.3175003875        0.7751973304        0.1660371071
O                0.8153654224        0.7323039379        0.1659048430
O                0.1846345776        0.7323039379        0.8340951570
O                0.4957321933        0.5078300652        0.1607208132
O                0.5042677767        0.5078300652        0.8392792018
O                0.1438784742        0.2767405075        0.8437491995
O                0.8561215408        0.2767405075        0.1562508005
O                0.1318457465        0.5036427956        0.3939630448
O                0.8681542685        0.5036427956        0.6060369552
O                0.6229763340        0.9998172278        0.3944602010
O                0.3770236660        0.9998172278        0.6055397690
H                0.0995886314        0.4950092408        0.2981889854
H                0.9004113986        0.4950092408        0.7018110146
H                0.5887946500        0.0120200979        0.2983552061
H                0.4112053500        0.0120200979        0.7016447939
Ti              -0.0000000000        0.0029799915        0.5000000000
End final coordinates

     Writing all to output data dir ./temp/phl-ti1-ti1.save/ :
     XML data file, charge density, pseudopotentials, collected wavefunctions

     General routines

     Parallel routines

     PAW routines

   This run was terminated on:   8:14: 9   1Mar2025

   JOB DONE.