     Program PWSCF v.7.3.1 starts on 21Dec2024 at 16:51:58

     Reading input from relax.in
Warning: card  &CELL ignored
Warning: card    CELL_DOFREE     = 'IBRAV' ignored
Warning: card  / ignored

     Current dimensions of program PWSCF are:
     Max number of different atomic species (ntypx) = 10
     Max number of k-points (npk) =  40000
     Max angular momentum in pseudopotentials (lmaxx) =  4
     file Al.pbe-n-kjpaw_psl.1.0.0.UPF: wavefunction(s)  3S 3P renormalized
     file Fe.pbe-spn-kjpaw_psl.1.0.0.UPF: wavefunction(s)  3P 3D renormalized
     file Fe.pbe-spn-kjpaw_psl.1.0.0.UPF: wavefunction(s)  3P 3D renormalized
     file H.pbe-kjpaw_psl.1.0.0.UPF: wavefunction(s)  1S renormalized
     file K.pbe-spn-kjpaw_psl.1.0.0.UPF: wavefunction(s)  3S renormalized
     file Mg.pbe-spnl-kjpaw_psl.1.0.0.UPF: wavefunction(s)  2P renormalized
     file O.pbe-n-kjpaw_psl.1.0.0.UPF: wavefunction(s)  2S 2P renormalized
     file Si.pbe-n-kjpaw_psl.1.0.0.UPF: wavefunction(s)  3S 3P renormalized

     R & G space division:  proc/nbgrp/npool/nimage =      12
     Subspace diagonalization in iterative solution of the eigenvalue problem:
     one sub-group per band group will be used

     Using Slab Decomposition

     bravais-lattice index     =          -12
     lattice parameter (alat)  =      20.0462  a.u.
     unit-cell volume          =    6626.3411 (a.u.)^3
     number of atoms/cell      =           88
     number of atomic types    =            8
     number of electrons       =       524.00
     number of Kohn-Sham states=          314
     kinetic-energy cutoff     =      60.0000  Ry
     charge density cutoff     =     480.0000  Ry
     scf convergence threshold =      1.0E-06
     mixing beta               =       0.7000
     number of iterations used =            8  plain     mixing
     energy convergence thresh.=      1.0E-04
     force convergence thresh. =      1.0E-03
     Exchange-correlation= SLA  PW   PBX  PBC
                           (   1   4   3   4   0   0   0)
     nstep                     =           50

     celldm(1)=  20.046151  celldm(2)=   0.869553  celldm(3)=   0.961035
     celldm(4)=   0.000000  celldm(5)=  -0.176276  celldm(6)=   0.000000

     crystal axes: (cart. coord. in units of alat)
               a(1) = (   1.000000   0.000000   0.000000 )
               a(2) = (   0.000000   0.869553   0.000000 )
               a(3) = (  -0.169408   0.000000   0.945986 )

     reciprocal axes: (cart. coord. in units 2 pi/alat)
               b(1) = (  1.000000 -0.000000  0.179080 )
               b(2) = (  0.000000  1.150017 -0.000000 )
               b(3) = (  0.000000  0.000000  1.057098 )

     PseudoPot. # 1 for Al read from file:
     ./../../pseudos/Al.pbe-n-kjpaw_psl.1.0.0.UPF
     MD5 check sum: 502b6b27b9c6270cab5dd1084b96fa6d
     Pseudo is Projector augmented-wave + core cor, Zval =  3.0
     Generated using &quot;atomic&quot; code by A. Dal Corso  v.6.3
     Shape of augmentation charge: PSQ
     Using radial grid of 1135 points,  6 beta functions with:
                l(1) =   0
                l(2) =   0
                l(3) =   1
                l(4) =   1
                l(5) =   2
                l(6) =   2
     Q(r) pseudized with 0 coefficients

     PseudoPot. # 2 for Fe read from file:
     ./../../pseudos/Fe.pbe-spn-kjpaw_psl.1.0.0.UPF
     MD5 check sum: fc81f059e5c5069939230b1155715ae8
     Pseudo is Projector augmented-wave + core cor, Zval = 16.0
     Generated using &quot;atomic&quot; code by A. Dal Corso  v.6.3
     Shape of augmentation charge: PSQ
     Using radial grid of 1191 points,  6 beta functions with:
                l(1) =   0
                l(2) =   0
                l(3) =   1
                l(4) =   1
                l(5) =   2
                l(6) =   2
     Q(r) pseudized with 0 coefficients

     PseudoPot. # 3 for Fe read from file:
     ./../../pseudos/Fe.pbe-spn-kjpaw_psl.1.0.0.UPF
     MD5 check sum: fc81f059e5c5069939230b1155715ae8
     Pseudo is Projector augmented-wave + core cor, Zval = 16.0
     Generated using &quot;atomic&quot; code by A. Dal Corso  v.6.3
     Shape of augmentation charge: PSQ
     Using radial grid of 1191 points,  6 beta functions with:
                l(1) =   0
                l(2) =   0
                l(3) =   1
                l(4) =   1
                l(5) =   2
                l(6) =   2
     Q(r) pseudized with 0 coefficients

     PseudoPot. # 4 for H  read from file:
     ./../../pseudos/H.pbe-kjpaw_psl.1.0.0.UPF
     MD5 check sum: d81a744832360e4a8af0b0b5b123bc2a
     Pseudo is Projector augmented-wave, Zval =  1.0
     Generated using &quot;atomic&quot; code by A. Dal Corso  v.6.3MaX
     Shape of augmentation charge: PSQ
     Using radial grid of  929 points,  2 beta functions with:
                l(1) =   0
                l(2) =   0
     Q(r) pseudized with 0 coefficients

     PseudoPot. # 5 for K  read from file:
     ./../../pseudos/K.pbe-spn-kjpaw_psl.1.0.0.UPF
     MD5 check sum: 34cc42130a09071ebe376fd42eb21491
     Pseudo is Projector augmented-wave + core cor, Zval =  9.0
     Generated using &quot;atomic&quot; code by A. Dal Corso  v.6.2.2
     Shape of augmentation charge: PSQ
     Using radial grid of 1165 points,  6 beta functions with:
                l(1) =   0
                l(2) =   0
                l(3) =   1
                l(4) =   1
                l(5) =   2
                l(6) =   2
     Q(r) pseudized with 0 coefficients

     PseudoPot. # 6 for Mg read from file:
     ./../../pseudos/Mg.pbe-spnl-kjpaw_psl.1.0.0.UPF
     MD5 check sum: fda14e0d92a6a9a5ebed782e5a4b3067
     Pseudo is Projector augmented-wave + core cor, Zval = 10.0
     Generated using &quot;atomic&quot; code by A. Dal Corso  v.6.3
     Shape of augmentation charge: PSQ
     Using radial grid of 1129 points,  4 beta functions with:
                l(1) =   0
                l(2) =   0
                l(3) =   1
                l(4) =   1
     Q(r) pseudized with 0 coefficients

     PseudoPot. # 7 for O  read from file:
     ./../../pseudos/O.pbe-n-kjpaw_psl.1.0.0.UPF
     MD5 check sum: e99d9cef9b487d1ca56f5b95ecd0fd7a
     Pseudo is Projector augmented-wave + core cor, Zval =  6.0
     Generated using &quot;atomic&quot; code by A. Dal Corso  v.6.3
     Shape of augmentation charge: PSQ
     Using radial grid of 1095 points,  4 beta functions with:
                l(1) =   0
                l(2) =   0
                l(3) =   1
                l(4) =   1
     Q(r) pseudized with 0 coefficients

     PseudoPot. # 8 for Si read from file:
     ./../../pseudos/Si.pbe-n-kjpaw_psl.1.0.0.UPF
     MD5 check sum: c39c59da582df4a0d9f10159256ea34e
     Pseudo is Projector augmented-wave + core cor, Zval =  4.0
     Generated using &quot;atomic&quot; code by A. Dal Corso  v.6.3
     Shape of augmentation charge: PSQ
     Using radial grid of 1141 points,  6 beta functions with:
                l(1) =   0
                l(2) =   0
                l(3) =   1
                l(4) =   1
                l(5) =   2
                l(6) =   2
     Q(r) pseudized with 0 coefficients

     atomic species   valence    mass     pseudopotential
     Al                3.00    26.98154     Al( 1.00)
     Fe1              16.00    55.84500     Fe( 1.00)
     Fe2              16.00    55.84500     Fe( 1.00)
     H                 1.00     1.00794     H ( 1.00)
     K                 9.00    39.09830     K ( 1.00)
     Mg               10.00    24.30500     Mg( 1.00)
     O                 6.00    15.99940     O ( 1.00)
     Si                4.00    28.08550     Si( 1.00)

     Starting magnetic structure
     atomic species   magnetization
     Al              0.000
     Fe1             0.300
     Fe2            -0.300
     H               0.000
     K               0.000
     Mg              0.000
     O               0.000
     Si              0.000

      2 Sym. Ops. (no inversion) found ( 1 have fractional translation)

                                    s                        frac. trans.

      isym =  1     identity

 cryst.   s( 1) = (     1          0          0      )
                  (     0          1          0      )
                  (     0          0          1      )

 cart.    s( 1) = (  1.0000000  0.0000000  0.0000000 )
                  (  0.0000000  1.0000000  0.0000000 )
                  (  0.0000000  0.0000000  1.0000000 )

      isym =  2     180 deg rotation - cart. axis [0,1,0]

 cryst.   s( 2) = (    -1          0          0      )    f =(  0.5000000 )
                  (     0          1          0      )       (  0.0000000 )
                  (     0          0         -1      )       (  0.0000000 )

 cart.    s( 2) = ( -1.0000000  0.0000000  0.0000000 )    f =(  0.5000000 )
                  (  0.0000000  1.0000000  0.0000000 )       (  0.0000000 )
                  (  0.0000000  0.0000000 -1.0000000 )       (  0.0000000 )

     point group C_2  (2)
     there are  2 classes
     the character table:

       E     C2
A      1.00  1.00
B      1.00 -1.00

     the symmetry operations in each class and the name of the first element:

     E        1
          identity
     C2       2
          180 deg rotation - cart. axis [0,1,0]

   Cartesian axes

     site n.     atom                  positions (alat units)
         1        K      tau(   1) = (   0.0000000   0.4330522   0.0000000  )
         2        K      tau(   2) = (   0.5000000   0.4330522   0.0000000  )
         3        K      tau(   3) = (   0.2500000   0.0004867   0.0000000  )
         4        K      tau(   4) = (   0.7500000   0.0004867   0.0000000  )
         5        Mg     tau(   5) = (   0.4152961   0.0031839   0.4729932  )
         6        Mg     tau(   6) = (  -0.0847038   0.0031839   0.4729932  )
         7        Mg     tau(   7) = (   0.4152961   0.2883605   0.4729932  )
         8        Mg     tau(   8) = (  -0.0847038   0.2883605   0.4729932  )
         9        Mg     tau(   9) = (   0.4152961   0.5789933   0.4729932  )
        10        Mg     tau(  10) = (  -0.0847038   0.5789933   0.4729932  )
        11        Mg     tau(  11) = (   0.1652961   0.7268787   0.4729932  )
        12        Mg     tau(  12) = (   0.6652961   0.7268787   0.4729932  )
        13        Mg     tau(  13) = (   0.1652961   0.1466516   0.4729932  )
        14        Mg     tau(  14) = (   0.6652961   0.1466516   0.4729932  )
        15        Fe1    tau(  15) = (   0.1652961   0.4281911   0.4729932  )
        16        Fe2    tau(  16) = (   0.6652961   0.4281911   0.4729932  )
        17        Si     tau(  17) = (   0.0044527   0.1432539   0.2102802  )
        18        Si     tau(  18) = (   0.5044527   0.1432539   0.2102802  )
        19        Si     tau(  19) = (   0.3261395   0.1432539   0.7357062  )
        20        Si     tau(  20) = (   0.8261395   0.1432539   0.7357062  )
        21        Si     tau(  21) = (   0.3359335   0.7255824   0.7303302  )
        22        Si     tau(  22) = (   0.8359336   0.7255824   0.7303302  )
        23        Si     tau(  23) = (  -0.0053413   0.7255824   0.2156561  )
        24        Si     tau(  24) = (   0.4946587   0.7255824   0.2156561  )
[...]
     atom   12 type  6   force =     0.00000000   -0.00000682    0.00000000
     atom   13 type  6   force =     0.00000000   -0.00007070   -0.00000000
     atom   14 type  6   force =     0.00000000    0.00005391    0.00000000
     atom   15 type  2   force =     0.00000000   -0.00005268   -0.00000000
     atom   16 type  3   force =     0.00000000   -0.00014178    0.00000000
     atom   17 type  8   force =     0.00001292    0.00000248   -0.00001183
     atom   18 type  8   force =    -0.00000828   -0.00001268   -0.00001400
     atom   19 type  8   force =    -0.00001292    0.00000248    0.00001183
     atom   20 type  8   force =     0.00000828   -0.00001268    0.00001400
     atom   21 type  8   force =    -0.00000710    0.00000065    0.00000825
     atom   22 type  8   force =     0.00001117    0.00001518    0.00001260
     atom   23 type  8   force =     0.00000710    0.00000065   -0.00000825
     atom   24 type  8   force =    -0.00001117    0.00001518   -0.00001260
     atom   25 type  8   force =     0.00000125   -0.00000242   -0.00000457
     atom   26 type  8   force =     0.00001225    0.00001375   -0.00000457
     atom   27 type  8   force =    -0.00000125   -0.00000242    0.00000457
     atom   28 type  8   force =    -0.00001225    0.00001375    0.00000457
     atom   29 type  1   force =     0.00000188   -0.00000206    0.00002408
     atom   30 type  1   force =    -0.00000518   -0.00001141   -0.00000240
     atom   31 type  1   force =    -0.00000188   -0.00000206   -0.00002408
     atom   32 type  1   force =     0.00000518   -0.00001141    0.00000240
     atom   33 type  7   force =     0.00001175    0.00003095   -0.00003549
     atom   34 type  7   force =    -0.00001221    0.00000694   -0.00004196
     atom   35 type  7   force =    -0.00001175    0.00003095    0.00003549
     atom   36 type  7   force =     0.00001221    0.00000694    0.00004196
     atom   37 type  7   force =     0.00000415   -0.00001869    0.00005434
     atom   38 type  7   force =     0.00002500    0.00000549    0.00006121
     atom   39 type  7   force =    -0.00000415   -0.00001869   -0.00005434
     atom   40 type  7   force =    -0.00002500    0.00000549   -0.00006121
     atom   41 type  7   force =     0.00001863   -0.00007206   -0.00002078
     atom   42 type  7   force =     0.00005101    0.00000017    0.00002978
     atom   43 type  7   force =    -0.00001863   -0.00007206    0.00002078
     atom   44 type  7   force =    -0.00005101    0.00000017   -0.00002978
     atom   45 type  7   force =     0.00001365    0.00008935   -0.00002452
     atom   46 type  7   force =    -0.00002167    0.00000848   -0.00006863
     atom   47 type  7   force =    -0.00001365    0.00008935    0.00002452
     atom   48 type  7   force =     0.00002167    0.00000848    0.00006863
     atom   49 type  7   force =     0.00000490    0.00000116   -0.00002904
     atom   50 type  7   force =    -0.00003492   -0.00004208   -0.00002959
     atom   51 type  7   force =    -0.00000490    0.00000116    0.00002904
     atom   52 type  7   force =     0.00003492   -0.00004208    0.00002959
     atom   53 type  7   force =    -0.00000484    0.00000060   -0.00001044
     atom   54 type  7   force =     0.00002349   -0.00001165   -0.00002149
     atom   55 type  7   force =     0.00000484    0.00000060    0.00001044
     atom   56 type  7   force =    -0.00002349   -0.00001165    0.00002149
     atom   57 type  7   force =     0.00001416    0.00001032    0.00002328
     atom   58 type  7   force =     0.00003910    0.00003806    0.00003463
     atom   59 type  7   force =    -0.00001416    0.00001032   -0.00002328
     atom   60 type  7   force =    -0.00003910    0.00003806   -0.00003463
[...]
     atom   74 type  7   force =    -0.00012267   -0.00001058    0.00005935
     atom   75 type  7   force =    -0.00004158   -0.00001060   -0.00007451
     atom   76 type  7   force =     0.00012267   -0.00001058   -0.00005935
     atom   77 type  7   force =     0.00000005    0.00001587   -0.00005917
     atom   78 type  7   force =     0.00000175    0.00001045   -0.00004663
     atom   79 type  7   force =    -0.00000005    0.00001587    0.00005917
     atom   80 type  7   force =    -0.00000175    0.00001045    0.00004663
     atom   81 type  4   force =     0.00000562   -0.00000211   -0.00001040
     atom   82 type  4   force =    -0.00001387   -0.00000001    0.00000977
     atom   83 type  4   force =    -0.00000562   -0.00000211    0.00001040
     atom   84 type  4   force =     0.00001387   -0.00000001   -0.00000977
     atom   85 type  4   force =     0.00000066    0.00000023   -0.00000461
     atom   86 type  4   force =    -0.00000032    0.00000040   -0.00000314
     atom   87 type  4   force =    -0.00000066    0.00000023    0.00000461
     atom   88 type  4   force =     0.00000032    0.00000040    0.00000314

     Dispersion contribution to forces:
     atom    1 type  5   force =    -0.00000001    0.00239803   -0.00000000
     atom    2 type  5   force =    -0.00000001    0.00239803   -0.00000000
     atom    3 type  5   force =    -0.00000001   -0.00189684   -0.00000001
     atom    4 type  5   force =    -0.00000001   -0.00189684   -0.00000001
     atom    5 type  6   force =     0.00000000    0.00051594   -0.00000000
     atom    6 type  6   force =    -0.00000000    0.00051595    0.00000001
     atom    7 type  6   force =     0.00000002   -0.00226214   -0.00000000
     atom    8 type  6   force =    -0.00000003   -0.00226214   -0.00000001
     atom    9 type  6   force =     0.00000001    0.00079550    0.00000001
     atom   10 type  6   force =    -0.00000002    0.00079550    0.00000000
     atom   11 type  6   force =     0.00000000    0.00238733    0.00000000
     atom   12 type  6   force =     0.00000000    0.00238733    0.00000001
     atom   13 type  6   force =     0.00000000   -0.00389700   -0.00000000
     atom   14 type  6   force =    -0.00000000   -0.00389700   -0.00000000
     atom   15 type  2   force =     0.00000001    0.00309068    0.00000000
     atom   16 type  3   force =     0.00000000    0.00309067    0.00000000
     atom   17 type  8   force =    -0.00014911   -0.00044865    0.00146030
     atom   18 type  8   force =    -0.00014911   -0.00044865    0.00146030
     atom   19 type  8   force =     0.00014911   -0.00044866   -0.00146030
     atom   20 type  8   force =     0.00014911   -0.00044865   -0.00146030
     atom   21 type  8   force =    -0.00008652    0.00016350   -0.00089547
     atom   22 type  8   force =    -0.00008652    0.00016350   -0.00089548
     atom   23 type  8   force =     0.00008652    0.00016350    0.00089547
     atom   24 type  8   force =     0.00008652    0.00016350    0.00089547
     atom   25 type  8   force =     0.00044407    0.00156832   -0.00044021
     atom   26 type  8   force =     0.00044407    0.00156832   -0.00044021
     atom   27 type  8   force =    -0.00044407    0.00156832    0.00044021
     atom   28 type  8   force =    -0.00044407    0.00156832    0.00044020
     atom   29 type  1   force =    -0.00074714   -0.00146205   -0.00143017
     atom   30 type  1   force =    -0.00074714   -0.00146205   -0.00143017
     atom   31 type  1   force =     0.00074713   -0.00146205    0.00143017
     atom   32 type  1   force =     0.00074714   -0.00146205    0.00143018
     atom   33 type  7   force =    -0.00015252    0.00015833    0.00038298
     atom   34 type  7   force =    -0.00015252    0.00015833    0.00038298
     atom   35 type  7   force =     0.00015252    0.00015833   -0.00038298
     atom   36 type  7   force =     0.00015252    0.00015833   -0.00038298
     atom   37 type  7   force =     0.00010055   -0.00017605   -0.00026267
     atom   38 type  7   force =     0.00010055   -0.00017605   -0.00026267
     atom   39 type  7   force =    -0.00010055   -0.00017604    0.00026267
     atom   40 type  7   force =    -0.00010055   -0.00017604    0.00026267
     atom   41 type  7   force =    -0.00015428   -0.00014714    0.00060389
     atom   42 type  7   force =    -0.00015428   -0.00014714    0.00060389
     atom   43 type  7   force =     0.00015427   -0.00014714   -0.00060389
     atom   44 type  7   force =     0.00015428   -0.00014714   -0.00060388
     atom   45 type  7   force =    -0.00016619   -0.00008541    0.00092061
     atom   46 type  7   force =    -0.00016619   -0.00008541    0.00092061
     atom   47 type  7   force =     0.00016619   -0.00008541   -0.00092061
     atom   48 type  7   force =     0.00016619   -0.00008541   -0.00092061
     atom   49 type  7   force =     0.00036561    0.00189416    0.00142224
     atom   50 type  7   force =     0.00036561    0.00189416    0.00142224
     atom   51 type  7   force =    -0.00036562    0.00189416   -0.00142225
     atom   52 type  7   force =    -0.00036562    0.00189416   -0.00142225
     atom   53 type  7   force =     0.00024264    0.00014330    0.00051278
     atom   54 type  7   force =     0.00024263    0.00014330    0.00051278
     atom   55 type  7   force =    -0.00024262    0.00014330   -0.00051278
     atom   56 type  7   force =    -0.00024263    0.00014330   -0.00051278
     atom   57 type  7   force =    -0.00001273    0.00008296    0.00001354
     atom   58 type  7   force =    -0.00001274    0.00008296    0.00001354
     atom   59 type  7   force =     0.00001274    0.00008296   -0.00001354
     atom   60 type  7   force =     0.00001273    0.00008296   -0.00001354
[...]
     atom   74 type  7   force =     0.00006115    0.00013185   -0.00214762
     atom   75 type  7   force =    -0.00006115    0.00013185    0.00214762
     atom   76 type  7   force =    -0.00006115    0.00013185    0.00214762
     atom   77 type  7   force =     0.00016142    0.00009654   -0.00243864
     atom   78 type  7   force =     0.00016142    0.00009654   -0.00243865
     atom   79 type  7   force =    -0.00016143    0.00009654    0.00243864
     atom   80 type  7   force =    -0.00016142    0.00009654    0.00243864
     atom   81 type  4   force =    -0.00074372   -0.00017921   -0.00013459
     atom   82 type  4   force =    -0.00074372   -0.00017921   -0.00013460
     atom   83 type  4   force =     0.00074372   -0.00017921    0.00013459
     atom   84 type  4   force =     0.00074372   -0.00017921    0.00013460
     atom   85 type  4   force =     0.00036271   -0.00016224    0.00085641
     atom   86 type  4   force =     0.00036271   -0.00016224    0.00085641
     atom   87 type  4   force =    -0.00036271   -0.00016224   -0.00085641
     atom   88 type  4   force =    -0.00036271   -0.00016223   -0.00085641

     Total force =     0.004834     Total SCF correction =     0.000489

     Total Dispersion Force =     0.015695
     SCF correction compared to forces is large: reduce conv_thr to get better values

     BFGS Geometry Optimization
     Energy error            =      0.0E+00 Ry
     Gradient error          =      8.6E-04 Ry/Bohr

     bfgs converged in   1 scf cycles and   0 bfgs steps
     (criteria: energy <  1.0E-04 Ry, force <  1.0E-03 Ry/Bohr)

     End of BFGS Geometry Optimization

     Final energy             =   -5262.7828569701 Ry
Begin final coordinates

ATOMIC_POSITIONS (crystal)
K                0.0000000000        0.4980171920        0.0000000000
K                0.5000000000        0.4980171920        0.0000000000
K                0.2500000300        0.0005596670        0.0000000000
K                0.7500000000        0.0005596670        0.0000000000
Mg               0.4999998810        0.0036615560        0.5000000000
Mg              -0.0000000000        0.0036615560        0.5000000000
Mg               0.4999998810        0.3316192920        0.5000000000
Mg              -0.0000000000        0.3316192920        0.5000000000
Mg               0.4999998810        0.6658518310        0.5000000000
Mg              -0.0000000000        0.6658518310        0.5000000000
Mg               0.2499999250        0.8359225390        0.5000000000
Mg               0.7499999400        0.8359225390        0.5000000000
Mg               0.2499999250        0.1686517890        0.5000000000
Mg               0.7499999400        0.1686517890        0.5000000000
Fe1              0.2499999250        0.4924269020        0.5000000000
Fe2              0.7499999400        0.4924269020        0.5000000000
Si               0.0421097200        0.1647443770        0.2222866710
Si               0.5421097280        0.1647443770        0.2222866710
Si               0.4578900930        0.1647443770        0.7777132990
Si               0.9578900930        0.1647443770        0.7777132990
Si               0.4667213860        0.8344317670        0.7720304130
Si               0.9667214160        0.8344317670        0.7720304130
Si               0.0332784500        0.8344317670        0.2279696170
Si               0.5332784650        0.8344317670        0.2279696170
Si               0.2829641700        0.6677138810        0.2262022200
Si               0.7829641700        0.6677138810        0.2262022200
Si               0.2170356660        0.6677138810        0.7737978100
Si               0.7170356510        0.6677138810        0.7737978100
Al               0.2071639000        0.3309708830        0.7762477990
Al               0.7071639300        0.3309708830        0.7762477990
Al               0.2928358910        0.3309708830        0.2237521710
Al               0.7928358910        0.3309708830        0.2237521710
O                0.0639970530        0.1625940050        0.3848313090
O                0.5639970300        0.1625940050        0.3848313090
O                0.4360027610        0.1625940050        0.6151686310
O                0.9360027310        0.1625940050        0.6151686310
O                0.4369409380        0.8331885340        0.6108109350
O                0.9369409080        0.8331885340        0.6108109350
O                0.0630588980        0.8331885340        0.3891890050
O                0.5630589130        0.8331885340        0.3891890050
O                0.3141302170        0.6743858460        0.3879655300
O                0.8141301870        0.6743858460        0.3879655300
O                0.1858696340        0.6743858460        0.6120343800
O                0.6858696340        0.6743858460        0.6120343800
O                0.1798347980        0.3281498550        0.6034174560
O                0.6798347830        0.3281498550        0.6034174560
O                0.3201650380        0.3281498550        0.3965825440
O                0.8201650380        0.3281498550        0.3965825440
O                0.1721314040        0.2027471660        0.1651141940
O                0.6721314190        0.2027471660        0.1651141940
O                0.3278684320        0.2027471660        0.8348857760
O                0.8278684620        0.2027471660        0.8348857760
O                0.4983568190        0.9972042440        0.1670104410
O                0.9983568190        0.9972042440        0.1670104410
O                0.0016430060        0.9972042440        0.8329895730
O                0.5016430020        0.9972042440        0.8329895730
O                0.3410290180        0.7753648160        0.8324884770
O                0.8410290480        0.7753648160        0.8324884770
O                0.1589708030        0.7753648160        0.1675114780
O                0.6589708330        0.7753648160        0.1675114780
[...]
O                0.5590908530        0.5034815070        0.3916319610
O                0.4409089390        0.5034815070        0.6083679800
O                0.9409089090        0.5034815070        0.6083679800
O                0.3166507180        0.9991074200        0.3967770340
O                0.8166507480        0.9991074200        0.3967770340
O                0.1833491330        0.9991074200        0.6032230260
O                0.6833491330        0.9991074200        0.6032230260
H                0.0518622850        0.4941242040        0.2962446510
H                0.5518622990        0.4941242040        0.2962446510
H                0.4481375520        0.4941242040        0.7037553790
H                0.9481375220        0.4941242040        0.7037553790
H                0.2983035150        0.0166547950        0.3019448220
H                0.7983034850        0.0166547950        0.3019448220
H                0.2016963060        0.0166547950        0.6980551480
H                0.7016962770        0.0166547950        0.6980551480
End final coordinates

     Writing all to output data dir ./temp/phl-fe1x2.save/ :
     XML data file, charge density, pseudopotentials, collected wavefunctions

     General routines

     Parallel routines

     PAW routines

   This run was terminated on:  11:15:24  22Dec2024

   JOB DONE.