     Program PWSCF v.7.3.1 starts on 25Mar2025 at  5:12:28

     Reading input from relax.in

     Current dimensions of program PWSCF are:
     Max number of different atomic species (ntypx) = 10
     Max number of k-points (npk) =  40000
     Max angular momentum in pseudopotentials (lmaxx) =  4

     File ./temp/phl-fe1-fe2x2.update deleted, as requested
     file Al.pbe-n-kjpaw_psl.1.0.0.UPF: wavefunction(s)  3S 3P renormalized
     file Fe.pbe-spn-kjpaw_psl.1.0.0.UPF: wavefunction(s)  3P 3D renormalized
     file Fe.pbe-spn-kjpaw_psl.1.0.0.UPF: wavefunction(s)  3P 3D renormalized
     file H.pbe-kjpaw_psl.1.0.0.UPF: wavefunction(s)  1S renormalized
     file K.pbe-spn-kjpaw_psl.1.0.0.UPF: wavefunction(s)  3S renormalized
     file Mg.pbe-spnl-kjpaw_psl.1.0.0.UPF: wavefunction(s)  2P renormalized
     file O.pbe-n-kjpaw_psl.1.0.0.UPF: wavefunction(s)  2S 2P renormalized
     file Si.pbe-n-kjpaw_psl.1.0.0.UPF: wavefunction(s)  3S 3P renormalized

     R & G space division:  proc/nbgrp/npool/nimage =       6
     Subspace diagonalization in iterative solution of the eigenvalue problem:
     one sub-group per band group will be used

     Using Slab Decomposition

     bravais-lattice index     =          -12
     lattice parameter (alat)  =      20.1376  a.u.
     unit-cell volume          =    6829.4530 (a.u.)^3
     number of atoms/cell      =           88
     number of atomic types    =            8
     number of electrons       =       524.00
     number of Kohn-Sham states=          314
     kinetic-energy cutoff     =      60.0000  Ry
     charge density cutoff     =     480.0000  Ry
     scf convergence threshold =      1.0E-08
     mixing beta               =       0.7000
     number of iterations used =            8  plain     mixing
     energy convergence thresh.=      1.0E-06
     force convergence thresh. =      1.0E-03
     Exchange-correlation= SLA  PW   PBX  PBC
                           (   1   4   3   4   0   0   0)
     nstep                     =           50

     celldm(1)=  20.137625  celldm(2)=   0.869550  celldm(3)=   0.978478
     celldm(4)=   0.000000  celldm(5)=  -0.184070  celldm(6)=   0.000000

     crystal axes: (cart. coord. in units of alat)
               a(1) = (   1.000000   0.000000   0.000000 )
               a(2) = (   0.000000   0.869550   0.000000 )
               a(3) = (  -0.180108   0.000000   0.961759 )

     reciprocal axes: (cart. coord. in units 2 pi/alat)
               b(1) = (  1.000000 -0.000000  0.187270 )
               b(2) = (  0.000000  1.150019 -0.000000 )
               b(3) = (  0.000000  0.000000  1.039761 )

     PseudoPot. # 1 for Al read from file:
     ./../../../pseudos/Al.pbe-n-kjpaw_psl.1.0.0.UPF
     MD5 check sum: 502b6b27b9c6270cab5dd1084b96fa6d
     Pseudo is Projector augmented-wave + core cor, Zval =  3.0
     Generated using &quot;atomic&quot; code by A. Dal Corso  v.6.3
     Shape of augmentation charge: PSQ
     Using radial grid of 1135 points,  6 beta functions with:
                l(1) =   0
                l(2) =   0
                l(3) =   1
                l(4) =   1
                l(5) =   2
                l(6) =   2
     Q(r) pseudized with 0 coefficients

     PseudoPot. # 2 for Fe read from file:
     ./../../../pseudos/Fe.pbe-spn-kjpaw_psl.1.0.0.UPF
     MD5 check sum: fc81f059e5c5069939230b1155715ae8
     Pseudo is Projector augmented-wave + core cor, Zval = 16.0
     Generated using &quot;atomic&quot; code by A. Dal Corso  v.6.3
     Shape of augmentation charge: PSQ
     Using radial grid of 1191 points,  6 beta functions with:
                l(1) =   0
                l(2) =   0
                l(3) =   1
                l(4) =   1
                l(5) =   2
                l(6) =   2
     Q(r) pseudized with 0 coefficients

     PseudoPot. # 3 for Fe read from file:
     ./../../../pseudos/Fe.pbe-spn-kjpaw_psl.1.0.0.UPF
     MD5 check sum: fc81f059e5c5069939230b1155715ae8
     Pseudo is Projector augmented-wave + core cor, Zval = 16.0
     Generated using &quot;atomic&quot; code by A. Dal Corso  v.6.3
     Shape of augmentation charge: PSQ
     Using radial grid of 1191 points,  6 beta functions with:
                l(1) =   0
                l(2) =   0
                l(3) =   1
                l(4) =   1
                l(5) =   2
                l(6) =   2
     Q(r) pseudized with 0 coefficients

     PseudoPot. # 4 for H  read from file:
     ./../../../pseudos/H.pbe-kjpaw_psl.1.0.0.UPF
     MD5 check sum: d81a744832360e4a8af0b0b5b123bc2a
     Pseudo is Projector augmented-wave, Zval =  1.0
     Generated using &quot;atomic&quot; code by A. Dal Corso  v.6.3MaX
     Shape of augmentation charge: PSQ
     Using radial grid of  929 points,  2 beta functions with:
                l(1) =   0
                l(2) =   0
     Q(r) pseudized with 0 coefficients

     PseudoPot. # 5 for K  read from file:
     ./../../../pseudos/K.pbe-spn-kjpaw_psl.1.0.0.UPF
     MD5 check sum: 34cc42130a09071ebe376fd42eb21491
     Pseudo is Projector augmented-wave + core cor, Zval =  9.0
     Generated using &quot;atomic&quot; code by A. Dal Corso  v.6.2.2
     Shape of augmentation charge: PSQ
     Using radial grid of 1165 points,  6 beta functions with:
                l(1) =   0
                l(2) =   0
                l(3) =   1
                l(4) =   1
                l(5) =   2
                l(6) =   2
     Q(r) pseudized with 0 coefficients

     PseudoPot. # 6 for Mg read from file:
     ./../../../pseudos/Mg.pbe-spnl-kjpaw_psl.1.0.0.UPF
     MD5 check sum: fda14e0d92a6a9a5ebed782e5a4b3067
     Pseudo is Projector augmented-wave + core cor, Zval = 10.0
     Generated using &quot;atomic&quot; code by A. Dal Corso  v.6.3
     Shape of augmentation charge: PSQ
     Using radial grid of 1129 points,  4 beta functions with:
                l(1) =   0
                l(2) =   0
                l(3) =   1
                l(4) =   1
     Q(r) pseudized with 0 coefficients

     PseudoPot. # 7 for O  read from file:
     ./../../../pseudos/O.pbe-n-kjpaw_psl.1.0.0.UPF
     MD5 check sum: e99d9cef9b487d1ca56f5b95ecd0fd7a
     Pseudo is Projector augmented-wave + core cor, Zval =  6.0
     Generated using &quot;atomic&quot; code by A. Dal Corso  v.6.3
     Shape of augmentation charge: PSQ
     Using radial grid of 1095 points,  4 beta functions with:
                l(1) =   0
                l(2) =   0
                l(3) =   1
                l(4) =   1
     Q(r) pseudized with 0 coefficients

     PseudoPot. # 8 for Si read from file:
     ./../../../pseudos/Si.pbe-n-kjpaw_psl.1.0.0.UPF
     MD5 check sum: c39c59da582df4a0d9f10159256ea34e
     Pseudo is Projector augmented-wave + core cor, Zval =  4.0
     Generated using &quot;atomic&quot; code by A. Dal Corso  v.6.3
     Shape of augmentation charge: PSQ
     Using radial grid of 1141 points,  6 beta functions with:
                l(1) =   0
                l(2) =   0
                l(3) =   1
                l(4) =   1
                l(5) =   2
                l(6) =   2
     Q(r) pseudized with 0 coefficients

     atomic species   valence    mass     pseudopotential
     Al                3.00    26.98154     Al( 1.00)
     Fe1              16.00    55.84500     Fe( 1.00)
     Fe2              16.00    55.84500     Fe( 1.00)
     H                 1.00     1.00794     H ( 1.00)
     K                 9.00    39.09830     K ( 1.00)
     Mg               10.00    24.30500     Mg( 1.00)
     O                 6.00    15.99940     O ( 1.00)
     Si                4.00    28.08550     Si( 1.00)

     Starting magnetic structure
     atomic species   magnetization
     Al              0.000
     Fe1             0.300
     Fe2            -0.300
     H               0.000
     K               0.000
     Mg              0.000
     O               0.000
     Si              0.000

      2 Sym. Ops. (no inversion) found

                                    s                        frac. trans.

      isym =  1     identity

 cryst.   s( 1) = (     1          0          0      )
                  (     0          1          0      )
                  (     0          0          1      )

 cart.    s( 1) = (  1.0000000  0.0000000  0.0000000 )
                  (  0.0000000  1.0000000  0.0000000 )
                  (  0.0000000  0.0000000  1.0000000 )

      isym =  2     180 deg rotation - cart. axis [0,1,0]

 cryst.   s( 2) = (    -1          0          0      )
                  (     0          1          0      )
                  (     0          0         -1      )

 cart.    s( 2) = ( -1.0000000  0.0000000 -0.0000000 )
                  (  0.0000000  1.0000000  0.0000000 )
                  (  0.0000000  0.0000000 -1.0000000 )

     point group C_2  (2)
     there are  2 classes
     the character table:

       E     C2
A      1.00  1.00
B      1.00 -1.00

     the symmetry operations in each class and the name of the first element:

     E        1
          identity
     C2       2
          180 deg rotation - cart. axis [0,1,0]

   Cartesian axes

     site n.     atom                  positions (alat units)
         1        K      tau(   1) = (   0.0000000   0.4264341   0.0000000  )
         2        K      tau(   2) = (   0.5000000   0.4264341   0.0000000  )
         3        K      tau(   3) = (   0.2500000   0.0048711   0.0000000  )
         4        K      tau(   4) = (   0.7500000   0.0048711   0.0000000  )
         5        Mg     tau(   5) = (  -0.0900539   0.0052982   0.4808795  )
         6        Mg     tau(   6) = (   0.4099461   0.0052982   0.4808795  )
         7        Mg     tau(   7) = (  -0.0900539   0.5801697   0.4808795  )
         8        Mg     tau(   8) = (   0.4099461   0.5801697   0.4808795  )
         9        Mg     tau(   9) = (   0.1599461   0.4312295   0.4808795  )
        10        Mg     tau(  10) = (   0.6599461   0.4312295   0.4808795  )
        11        Mg     tau(  11) = (   0.1599461   0.7265245   0.4808795  )
        12        Mg     tau(  12) = (   0.6599461   0.7265245   0.4808795  )
        13        Mg     tau(  13) = (   0.1599461   0.1482463   0.4808795  )
        14        Mg     tau(  14) = (   0.6599461   0.1482463   0.4808795  )
        15        Si     tau(  15) = (   0.0035443   0.1419109   0.2165584  )
        16        Si     tau(  16) = (   0.5035443   0.1419109   0.2165584  )
        17        Si     tau(  17) = (   0.3163478   0.1419109   0.7452006  )
        18        Si     tau(  18) = (   0.8163478   0.1419109   0.7452006  )
        19        Si     tau(  19) = (   0.3298072   0.7253971   0.7380001  )
        20        Si     tau(  20) = (   0.8298072   0.7253971   0.7380001  )
        21        Si     tau(  21) = (  -0.0099150   0.7253971   0.2237588  )
        22        Si     tau(  22) = (   0.4900850   0.7253971   0.2237588  )
        23        Si     tau(  23) = (   0.2400579   0.5796590   0.2223744  )
        24        Si     tau(  24) = (   0.7400580   0.5796590   0.2223744  )
        25        Si     tau(  25) = (   0.0798342   0.5796590   0.7393846  )
        26        Si     tau(  26) = (   0.5798342   0.5796590   0.7393846  )
[...]
     atom   11 type  6   force =    -0.00000052   -0.00000298   -0.00000071
     atom   12 type  6   force =     0.00000052   -0.00000298    0.00000071
     atom   13 type  6   force =     0.00000076    0.00000490   -0.00000042
     atom   14 type  6   force =    -0.00000076    0.00000490    0.00000042
     atom   15 type  8   force =    -0.00000107    0.00000033    0.00000155
     atom   16 type  8   force =    -0.00000089    0.00000052    0.00000127
     atom   17 type  8   force =     0.00000089    0.00000052   -0.00000127
     atom   18 type  8   force =     0.00000107    0.00000033   -0.00000155
     atom   19 type  8   force =     0.00000019   -0.00000097    0.00000082
     atom   20 type  8   force =     0.00000021   -0.00000114    0.00000044
     atom   21 type  8   force =    -0.00000021   -0.00000114   -0.00000044
     atom   22 type  8   force =    -0.00000019   -0.00000097   -0.00000082
     atom   23 type  8   force =    -0.00000016    0.00000031   -0.00000051
     atom   24 type  8   force =     0.00000067    0.00000046   -0.00000008
     atom   25 type  8   force =    -0.00000067    0.00000046    0.00000008
     atom   26 type  8   force =     0.00000016    0.00000031    0.00000051
     atom   27 type  1   force =    -0.00000053    0.00000048   -0.00000015
     atom   28 type  1   force =    -0.00000039    0.00000068   -0.00000035
     atom   29 type  1   force =     0.00000039    0.00000068    0.00000035
     atom   30 type  1   force =     0.00000053    0.00000048    0.00000015
     atom   31 type  7   force =    -0.00000301    0.00000172    0.00001734
     atom   32 type  7   force =    -0.00000305    0.00000346    0.00001677
     atom   33 type  7   force =     0.00000305    0.00000346   -0.00001677
     atom   34 type  7   force =     0.00000301    0.00000172   -0.00001734
     atom   35 type  7   force =     0.00000034   -0.00000070   -0.00001422
     atom   36 type  7   force =     0.00000080   -0.00000053   -0.00001394
     atom   37 type  7   force =    -0.00000080   -0.00000053    0.00001394
     atom   38 type  7   force =    -0.00000034   -0.00000070    0.00001422
     atom   39 type  7   force =    -0.00000091   -0.00000004    0.00001459
     atom   40 type  7   force =     0.00000137   -0.00000058    0.00001492
     atom   41 type  7   force =    -0.00000137   -0.00000058   -0.00001492
     atom   42 type  7   force =     0.00000091   -0.00000004   -0.00001459
     atom   43 type  7   force =    -0.00000143   -0.00000059   -0.00000636
     atom   44 type  7   force =    -0.00000356   -0.00000058   -0.00000712
     atom   45 type  7   force =     0.00000356   -0.00000058    0.00000712
     atom   46 type  7   force =     0.00000143   -0.00000059    0.00000636
     atom   47 type  7   force =     0.00000822    0.00000303   -0.00000717
     atom   48 type  7   force =     0.00000873    0.00000296   -0.00000725
     atom   49 type  7   force =    -0.00000873    0.00000296    0.00000725
     atom   50 type  7   force =    -0.00000822    0.00000303    0.00000717
     atom   51 type  7   force =    -0.00000345   -0.00000425   -0.00001068
     atom   52 type  7   force =    -0.00000342   -0.00000369   -0.00001114
     atom   53 type  7   force =     0.00000342   -0.00000369    0.00001114
     atom   54 type  7   force =     0.00000345   -0.00000425    0.00001068
     atom   55 type  7   force =    -0.00000087    0.00000151    0.00001218
     atom   56 type  7   force =    -0.00000001    0.00000123    0.00001197
     atom   57 type  7   force =     0.00000001    0.00000123   -0.00001197
     atom   58 type  7   force =     0.00000087    0.00000151   -0.00001218
     atom   59 type  7   force =     0.00000068   -0.00000095   -0.00001261
     atom   60 type  7   force =     0.00000164   -0.00000099   -0.00001129
[...]
     atom   74 type  7   force =     0.00000088   -0.00000033   -0.00000361
     atom   75 type  7   force =     0.00000127   -0.00000029    0.00000407
     atom   76 type  7   force =     0.00000338   -0.00000002    0.00000608
     atom   77 type  7   force =    -0.00000338   -0.00000002   -0.00000608
     atom   78 type  7   force =    -0.00000127   -0.00000029   -0.00000407
     atom   79 type  4   force =    -0.00000015    0.00000021    0.00000153
     atom   80 type  4   force =    -0.00000015   -0.00000010    0.00000079
     atom   81 type  4   force =     0.00000015   -0.00000010   -0.00000079
     atom   82 type  4   force =     0.00000015    0.00000021   -0.00000153
     atom   83 type  4   force =     0.00000022   -0.00000028    0.00000222
     atom   84 type  4   force =     0.00000041   -0.00000028    0.00000246
     atom   85 type  4   force =    -0.00000041   -0.00000028   -0.00000246
     atom   86 type  4   force =    -0.00000022   -0.00000028   -0.00000222
     atom   87 type  2   force =     0.00000000   -0.00000794   -0.00000000
     atom   88 type  3   force =    -0.00000000   -0.00001111    0.00000000

     DFT-D3 dispersion contribution to forces:
     atom    1 type  5   force =     0.00000002    0.00118388   -0.00000000
     atom    2 type  5   force =     0.00000002    0.00118388   -0.00000000
     atom    3 type  5   force =     0.00000000   -0.00079008    0.00000000
     atom    4 type  5   force =     0.00000000   -0.00079008    0.00000000
     atom    5 type  6   force =    -0.00000000    0.00044534   -0.00000000
     atom    6 type  6   force =    -0.00000000    0.00044534   -0.00000000
     atom    7 type  6   force =    -0.00000000   -0.00130700   -0.00000000
     atom    8 type  6   force =    -0.00000000   -0.00130700   -0.00000000
     atom    9 type  6   force =     0.00000000   -0.00048774   -0.00000000
     atom   10 type  6   force =     0.00000000   -0.00048774   -0.00000000
     atom   11 type  6   force =     0.00000000    0.00113745   -0.00000000
     atom   12 type  6   force =     0.00000000    0.00113745   -0.00000000
     atom   13 type  6   force =     0.00000000   -0.00032633   -0.00000000
     atom   14 type  6   force =     0.00000000   -0.00032633   -0.00000000
     atom   15 type  8   force =    -0.00003848   -0.00005114   -0.00012272
     atom   16 type  8   force =    -0.00003848   -0.00005114   -0.00012272
     atom   17 type  8   force =     0.00003848   -0.00005114    0.00012272
     atom   18 type  8   force =     0.00003848   -0.00005114    0.00012272
     atom   19 type  8   force =     0.00004755    0.00002087    0.00025721
     atom   20 type  8   force =     0.00004755    0.00002087    0.00025721
     atom   21 type  8   force =    -0.00004755    0.00002087   -0.00025721
     atom   22 type  8   force =    -0.00004755    0.00002087   -0.00025721
     atom   23 type  8   force =     0.00001770    0.00025901   -0.00025571
     atom   24 type  8   force =     0.00001770    0.00025901   -0.00025571
     atom   25 type  8   force =    -0.00001770    0.00025901    0.00025571
     atom   26 type  8   force =    -0.00001770    0.00025901    0.00025571
     atom   27 type  1   force =    -0.00019900    0.00003783   -0.00101962
     atom   28 type  1   force =    -0.00019900    0.00003783   -0.00101962
     atom   29 type  1   force =     0.00019900    0.00003783    0.00101963
     atom   30 type  1   force =     0.00019900    0.00003783    0.00101963
     atom   31 type  7   force =    -0.00005475    0.00012410    0.00050022
     atom   32 type  7   force =    -0.00005475    0.00012410    0.00050022
     atom   33 type  7   force =     0.00005475    0.00012410   -0.00050022
     atom   34 type  7   force =     0.00005475    0.00012410   -0.00050022
     atom   35 type  7   force =     0.00000349    0.00000478   -0.00039206
     atom   36 type  7   force =     0.00000349    0.00000478   -0.00039206
     atom   37 type  7   force =    -0.00000349    0.00000478    0.00039206
     atom   38 type  7   force =    -0.00000349    0.00000478    0.00039206
     atom   39 type  7   force =    -0.00002071   -0.00000199    0.00039687
     atom   40 type  7   force =    -0.00002071   -0.00000199    0.00039687
     atom   41 type  7   force =     0.00002071   -0.00000199   -0.00039688
     atom   42 type  7   force =     0.00002071   -0.00000199   -0.00039688
     atom   43 type  7   force =    -0.00007860   -0.00001539    0.00002647
     atom   44 type  7   force =    -0.00007860   -0.00001539    0.00002647
     atom   45 type  7   force =     0.00007860   -0.00001539   -0.00002647
     atom   46 type  7   force =     0.00007860   -0.00001539   -0.00002647
     atom   47 type  7   force =    -0.00019971    0.00103034    0.00026155
     atom   48 type  7   force =    -0.00019971    0.00103034    0.00026155
     atom   49 type  7   force =     0.00019971    0.00103034   -0.00026155
     atom   50 type  7   force =     0.00019971    0.00103034   -0.00026155
     atom   51 type  7   force =     0.00087486    0.00006613    0.00021271
     atom   52 type  7   force =     0.00087486    0.00006613    0.00021271
     atom   53 type  7   force =    -0.00087487    0.00006613   -0.00021271
     atom   54 type  7   force =    -0.00087487    0.00006612   -0.00021271
     atom   55 type  7   force =     0.00032353   -0.00045128    0.00001877
     atom   56 type  7   force =     0.00032353   -0.00045128    0.00001877
     atom   57 type  7   force =    -0.00032353   -0.00045130   -0.00001876
     atom   58 type  7   force =    -0.00032353   -0.00045130   -0.00001876
     atom   59 type  7   force =    -0.00013480    0.00020433   -0.00005307
     atom   60 type  7   force =    -0.00013480    0.00020433   -0.00005307
[...]
     atom   74 type  7   force =     0.00010649   -0.00017175    0.00036894
     atom   75 type  7   force =     0.00002189   -0.00000312   -0.00052609
     atom   76 type  7   force =     0.00002189   -0.00000312   -0.00052609
     atom   77 type  7   force =    -0.00002189   -0.00000312    0.00052609
     atom   78 type  7   force =    -0.00002189   -0.00000312    0.00052609
     atom   79 type  4   force =    -0.00010075    0.00013589   -0.00010615
     atom   80 type  4   force =    -0.00010075    0.00013589   -0.00010615
     atom   81 type  4   force =     0.00010075    0.00013589    0.00010615
     atom   82 type  4   force =     0.00010075    0.00013589    0.00010615
     atom   83 type  4   force =     0.00010468   -0.00043876   -0.00030294
     atom   84 type  4   force =     0.00010468   -0.00043876   -0.00030294
     atom   85 type  4   force =    -0.00010468   -0.00043876    0.00030293
     atom   86 type  4   force =    -0.00010468   -0.00043876    0.00030293
     atom   87 type  2   force =    -0.00000000    0.00067274   -0.00000000
     atom   88 type  3   force =    -0.00000000    0.00067274   -0.00000000

     Total force =     0.000917     Total SCF correction =     0.000084

     DFT-D3 dispersion Force =     0.006422

     BFGS Geometry Optimization
     Energy error            =      0.0E+00 Ry
     Gradient error          =      1.8E-04 Ry/Bohr

     bfgs converged in   1 scf cycles and   0 bfgs steps
     (criteria: energy <  1.0E-06 Ry, force <  1.0E-03 Ry/Bohr)

     End of BFGS Geometry Optimization

     Final energy             =   -5262.5290732810 Ry
Begin final coordinates

ATOMIC_POSITIONS (crystal)
K                0.0000000000        0.4904074970        0.0000000000
K                0.5000000000        0.4904074970        0.0000000000
K                0.2500000000        0.0056018250        0.0000000000
K                0.7500000000        0.0056018250        0.0000000000
Mg               0.0000001880        0.0060930550        0.4999998210
Mg               0.5000001790        0.0060930550        0.4999998210
Mg               0.0000001880        0.6672064070        0.4999998210
Mg               0.5000001790        0.6672064070        0.4999998210
Mg               0.2500002090        0.4959222970        0.4999998210
Mg               0.7500002380        0.4959222970        0.4999998210
Mg               0.2500002090        0.8355172870        0.4999998210
Mg               0.7500002380        0.8355172870        0.4999998210
Mg               0.2500002090        0.1704860780        0.4999998210
Mg               0.7500002380        0.1704860780        0.4999998210
Si               0.0440991370        0.1632003190        0.2251690630
Si               0.5440991520        0.1632003190        0.2251690630
Si               0.4559012650        0.1632003190        0.7748306390
Si               0.9559012650        0.1632003190        0.7748306390
Si               0.4680121540        0.8342208270        0.7673438790
Si               0.9680121540        0.8342208270        0.7673438790
Si               0.0319882710        0.8342208270        0.2326557640
Si               0.5319882630        0.8342208270        0.2326557640
Si               0.2817018930        0.6666191220        0.2312162520
Si               0.7817019220        0.6666191220        0.2312162520
Si               0.2182984800        0.6666191220        0.7687833910
Si               0.7182984950        0.6666191220        0.7687833910
Al               0.2051398010        0.3307094570        0.7718817590
Al               0.7051398160        0.3307094570        0.7718817590
Al               0.2948606310        0.3307094570        0.2281178830
Al               0.7948606010        0.3307094570        0.2281178830
O                0.0675911750        0.1577169600        0.3841080070
O                0.5675911900        0.1577169600        0.3841080070
O                0.4324092270        0.1577169600        0.6158916950
O                0.9324092270        0.1577169600        0.6158916950
O                0.4376909140        0.8345828060        0.6092186570
O                0.9376909140        0.8345828060        0.6092186570
O                0.0623095000        0.8345828060        0.3907810150
O                0.5623095040        0.8345828060        0.3907810150
O                0.3129889370        0.6698168520        0.3901035190
O                0.8129889370        0.6698168520        0.3901035190
O                0.1870114510        0.6698168520        0.6098961830
O                0.6870114800        0.6698168520        0.6098961830
O                0.1803855600        0.3332562740        0.6014271970
O                0.6803855900        0.3332562740        0.6014271970
O                0.3196148570        0.3332562740        0.3985724150
O                0.8196148870        0.3332562740        0.3985724150
O                0.1725108180        0.2050072100        0.1689024720
O                0.6725108030        0.2050072100        0.1689024720
O                0.3274895850        0.2050072100        0.8310971260
O                0.8274896140        0.2050072100        0.8310971260
O                0.0018252340        0.9963546990        0.1696969570
O                0.5018252130        0.9963546990        0.1696969570
O                0.4981751740        0.9963546990        0.8303027150
O                0.9981751440        0.9963546990        0.8303027150
O                0.3449204560        0.7696653600        0.8258810640
O                0.8449204560        0.7696653600        0.8258810640
O                0.1550799610        0.7696653600        0.1741185780
O                0.6550799610        0.7696653600        0.1741185780
O                0.4041931630        0.7369629140        0.1730591950
O                0.9041931630        0.7369629140        0.1730591950
[...]
O                0.9322381020        0.5116184350        0.6064645050
O                0.3167261180        0.9995542760        0.3993117510
O                0.8167260890        0.9995542760        0.3993117510
O                0.1832743140        0.9995542760        0.6006879210
O                0.6832743290        0.9995542760        0.6006879210
H                0.0518611410        0.4923958180        0.3008861240
H                0.5518611670        0.4923958180        0.3008861240
H                0.4481392800        0.4923958180        0.6991135480
H                0.9481393100        0.4923958180        0.6991135480
H                0.2968665360        0.0133748920        0.3058905300
H                0.7968665360        0.0133748920        0.3058905300
H                0.2031338810        0.0133748920        0.6941091420
H                0.7031338810        0.0133748920        0.6941091420
Fe1              0.0000001880        0.3355329040        0.4999998210
Fe2              0.5000001790        0.3355329040        0.4999998210
End final coordinates

     Writing all to output data dir ./temp/phl-fe1-fe2x2.save/ :
     XML data file, charge density, pseudopotentials, collected wavefunctions

     General routines

     Parallel routines

     PAW routines

   This run was terminated on:  23:36:29  25Mar2025

   JOB DONE.