     Program PWSCF v.7.3.1 starts on 16Jan2025 at 17:54:45

     Reading input from relax.in
Warning: card  &CELL ignored
Warning: card    CELL_DOFREE     = 'IBRAV' ignored
Warning: card  / ignored

     Current dimensions of program PWSCF are:
     Max number of different atomic species (ntypx) = 10
     Max number of k-points (npk) =  40000
     Max angular momentum in pseudopotentials (lmaxx) =  4
     file Al.pbe-n-kjpaw_psl.1.0.0.UPF: wavefunction(s)  3S 3P renormalized
     file Fe.pbe-spn-kjpaw_psl.1.0.0.UPF: wavefunction(s)  3P 3D renormalized
     file H.pbe-kjpaw_psl.1.0.0.UPF: wavefunction(s)  1S renormalized
     file K.pbe-spn-kjpaw_psl.1.0.0.UPF: wavefunction(s)  3S renormalized
     file Mg.pbe-spnl-kjpaw_psl.1.0.0.UPF: wavefunction(s)  2P renormalized
     file O.pbe-n-kjpaw_psl.1.0.0.UPF: wavefunction(s)  2S 2P renormalized
     file Si.pbe-n-kjpaw_psl.1.0.0.UPF: wavefunction(s)  3S 3P renormalized

     R & G space division:  proc/nbgrp/npool/nimage =       6
     Subspace diagonalization in iterative solution of the eigenvalue problem:
     one sub-group per band group will be used

     Using Slab Decomposition

     bravais-lattice index     =          -12
     lattice parameter (alat)  =      10.0136  a.u.
     unit-cell volume          =    3303.4414 (a.u.)^3
     number of atoms/cell      =           44
     number of atomic types    =            7
     number of electrons       =       262.00
     number of Kohn-Sham states=          157
     kinetic-energy cutoff     =      60.0000  Ry
     charge density cutoff     =     480.0000  Ry
     scf convergence threshold =      1.0E-06
     mixing beta               =       0.7000
     number of iterations used =            8  plain     mixing
     energy convergence thresh.=      1.0E-04
     force convergence thresh. =      1.0E-03
     Exchange-correlation= SLA  PW   PBX  PBC
                           (   1   4   3   4   0   0   0)
     nstep                     =           50

     celldm(1)=  10.013640  celldm(2)=   1.735306  celldm(3)=   1.926511
     celldm(4)=   0.000000  celldm(5)=  -0.177565  celldm(6)=   0.000000

     crystal axes: (cart. coord. in units of alat)
               a(1) = (   1.000000   0.000000   0.000000 )
               a(2) = (   0.000000   1.735306   0.000000 )
               a(3) = (  -0.342081   0.000000   1.895896 )

     reciprocal axes: (cart. coord. in units 2 pi/alat)
               b(1) = (  1.000000 -0.000000  0.180432 )
               b(2) = (  0.000000  0.576267 -0.000000 )
               b(3) = (  0.000000  0.000000  0.527455 )

     PseudoPot. # 1 for Al read from file:
     ./../../../pseudos/Al.pbe-n-kjpaw_psl.1.0.0.UPF
     MD5 check sum: 502b6b27b9c6270cab5dd1084b96fa6d
     Pseudo is Projector augmented-wave + core cor, Zval =  3.0
     Generated using &quot;atomic&quot; code by A. Dal Corso  v.6.3
     Shape of augmentation charge: PSQ
     Using radial grid of 1135 points,  6 beta functions with:
                l(1) =   0
                l(2) =   0
                l(3) =   1
                l(4) =   1
                l(5) =   2
                l(6) =   2
     Q(r) pseudized with 0 coefficients

     PseudoPot. # 2 for Fe read from file:
     ./../../../pseudos/Fe.pbe-spn-kjpaw_psl.1.0.0.UPF
     MD5 check sum: fc81f059e5c5069939230b1155715ae8
     Pseudo is Projector augmented-wave + core cor, Zval = 16.0
     Generated using &quot;atomic&quot; code by A. Dal Corso  v.6.3
     Shape of augmentation charge: PSQ
     Using radial grid of 1191 points,  6 beta functions with:
                l(1) =   0
                l(2) =   0
                l(3) =   1
                l(4) =   1
                l(5) =   2
                l(6) =   2
     Q(r) pseudized with 0 coefficients

     PseudoPot. # 3 for H  read from file:
     ./../../../pseudos/H.pbe-kjpaw_psl.1.0.0.UPF
     MD5 check sum: d81a744832360e4a8af0b0b5b123bc2a
     Pseudo is Projector augmented-wave, Zval =  1.0
     Generated using &quot;atomic&quot; code by A. Dal Corso  v.6.3MaX
     Shape of augmentation charge: PSQ
     Using radial grid of  929 points,  2 beta functions with:
                l(1) =   0
                l(2) =   0
     Q(r) pseudized with 0 coefficients

     PseudoPot. # 4 for K  read from file:
     ./../../../pseudos/K.pbe-spn-kjpaw_psl.1.0.0.UPF
     MD5 check sum: 34cc42130a09071ebe376fd42eb21491
     Pseudo is Projector augmented-wave + core cor, Zval =  9.0
     Generated using &quot;atomic&quot; code by A. Dal Corso  v.6.2.2
     Shape of augmentation charge: PSQ
     Using radial grid of 1165 points,  6 beta functions with:
                l(1) =   0
                l(2) =   0
                l(3) =   1
                l(4) =   1
                l(5) =   2
                l(6) =   2
     Q(r) pseudized with 0 coefficients

     PseudoPot. # 5 for Mg read from file:
     ./../../../pseudos/Mg.pbe-spnl-kjpaw_psl.1.0.0.UPF
     MD5 check sum: fda14e0d92a6a9a5ebed782e5a4b3067
     Pseudo is Projector augmented-wave + core cor, Zval = 10.0
     Generated using &quot;atomic&quot; code by A. Dal Corso  v.6.3
     Shape of augmentation charge: PSQ
     Using radial grid of 1129 points,  4 beta functions with:
                l(1) =   0
                l(2) =   0
                l(3) =   1
                l(4) =   1
     Q(r) pseudized with 0 coefficients

     PseudoPot. # 6 for O  read from file:
     ./../../../pseudos/O.pbe-n-kjpaw_psl.1.0.0.UPF
     MD5 check sum: e99d9cef9b487d1ca56f5b95ecd0fd7a
     Pseudo is Projector augmented-wave + core cor, Zval =  6.0
     Generated using &quot;atomic&quot; code by A. Dal Corso  v.6.3
     Shape of augmentation charge: PSQ
     Using radial grid of 1095 points,  4 beta functions with:
                l(1) =   0
                l(2) =   0
                l(3) =   1
                l(4) =   1
     Q(r) pseudized with 0 coefficients

     PseudoPot. # 7 for Si read from file:
     ./../../../pseudos/Si.pbe-n-kjpaw_psl.1.0.0.UPF
     MD5 check sum: c39c59da582df4a0d9f10159256ea34e
     Pseudo is Projector augmented-wave + core cor, Zval =  4.0
     Generated using &quot;atomic&quot; code by A. Dal Corso  v.6.3
     Shape of augmentation charge: PSQ
     Using radial grid of 1141 points,  6 beta functions with:
                l(1) =   0
                l(2) =   0
                l(3) =   1
                l(4) =   1
                l(5) =   2
                l(6) =   2
     Q(r) pseudized with 0 coefficients

     atomic species   valence    mass     pseudopotential
     Al                3.00    26.98154     Al( 1.00)
     Fe               16.00    55.84500     Fe( 1.00)
     H                 1.00     1.00794     H ( 1.00)
     K                 9.00    39.09830     K ( 1.00)
     Mg               10.00    24.30500     Mg( 1.00)
     O                 6.00    15.99940     O ( 1.00)
     Si                4.00    28.08550     Si( 1.00)

     Starting magnetic structure
     atomic species   magnetization
     Al              0.000
     Fe              0.300
     H               0.000
     K               0.000
     Mg              0.000
     O               0.000
     Si              0.000

      2 Sym. Ops. (no inversion) found

                                    s                        frac. trans.

      isym =  1     identity

 cryst.   s( 1) = (     1          0          0      )
                  (     0          1          0      )
                  (     0          0          1      )

 cart.    s( 1) = (  1.0000000  0.0000000 -0.0000000 )
                  (  0.0000000  1.0000000  0.0000000 )
                  (  0.0000000  0.0000000  1.0000000 )

      isym =  2     180 deg rotation - cart. axis [0,1,0]

 cryst.   s( 2) = (    -1          0          0      )
                  (     0          1          0      )
                  (     0          0         -1      )

 cart.    s( 2) = ( -1.0000000  0.0000000  0.0000000 )
                  (  0.0000000  1.0000000  0.0000000 )
                  (  0.0000000  0.0000000 -1.0000000 )

     point group C_2  (2)
     there are  2 classes
     the character table:

       E     C2
A      1.00  1.00
B      1.00 -1.00

     the symmetry operations in each class and the name of the first element:

     E        1
          identity
     C2       2
          180 deg rotation - cart. axis [0,1,0]

   Cartesian axes

     site n.     atom                  positions (alat units)
         1        K      tau(   1) = (   0.0000000   0.8559224   0.0000000  )
         2        K      tau(   2) = (   0.5000000   0.0093568   0.0000000  )
         3        Mg     tau(   3) = (  -0.1710407   0.0067712   0.9479482  )
         4        Mg     tau(   4) = (  -0.1710407   0.5780843   0.9479482  )
         5        Mg     tau(   5) = (   0.3289593   0.8562226   0.9479482  )
         6        Mg     tau(   6) = (   0.3289593   1.4480089   0.9479482  )
         7        Mg     tau(   7) = (   0.3289593   0.2986375   0.9479482  )
         8        Si     tau(   8) = (   0.0066674   0.2865251   0.4219393  )
         9        Si     tau(   9) = (   0.6512512   0.2865251   1.4739571  )
        10        Si     tau(  10) = (   0.6701371   1.4476688   1.4628623  )
        11        Si     tau(  11) = (  -0.0122184   1.4476688   0.4330341  )
        12        Si     tau(  12) = (   0.4872056   1.1568454   0.4292651  )
        13        Si     tau(  13) = (   0.1707131   1.1568454   1.4666313  )
        14        Al     tau(  14) = (   0.1506005   0.5746762   1.4713786  )
        15        Al     tau(  15) = (   0.5073182   0.5746762   0.4245178  )
        16        O      tau(  16) = (  -0.0043508   0.2833738   0.7297400  )
        17        O      tau(  17) = (   0.6622695   0.2833738   1.1661564  )
        18        O      tau(  18) = (   0.6658139   1.4451231   1.1576912  )
        19        O      tau(  19) = (  -0.0078952   1.4451231   0.7382052  )
        20        O      tau(  20) = (   0.4926234   1.1618863   0.7357690  )
        21        O      tau(  21) = (   0.1652953   1.1618863   1.1601274  )
        22        O      tau(  22) = (   0.1548298   0.5779784   1.1454267  )
        23        O      tau(  23) = (   0.5030889   0.5779784   0.7504697  )
        24        O      tau(  24) = (   0.2847398   0.3548857   0.3143567  )
        25        O      tau(  25) = (   0.3731789   0.3548857   1.5815397  )
        26        O      tau(  26) = (   0.9404978   1.7303189   0.3181314  )
        27        O      tau(  27) = (  -0.2825791   1.7303189   1.5777650  )
        28        O      tau(  28) = (   0.3988927   1.3439356   1.5754330  )
        29        O      tau(  29) = (   0.2590260   1.3439356   0.3204634  )
        30        O      tau(  30) = (   0.7582660   1.2710892   0.3185125  )
        31        O      tau(  31) = (  -0.1003473   1.2710892   1.5773839  )
        32        O      tau(  32) = (   0.4432368   0.8811364   0.3085875  )
        33        O      tau(  33) = (   0.2146819   0.8811364   1.5873090  )
        34        O      tau(  34) = (  -0.1423236   0.4782556   1.5925436  )
        35        O      tau(  35) = (   0.8002423   0.4782556   0.3033529  )
[...]
     atom   10 type  7   force =     0.00001067    0.00402234   -0.01279360
     atom   11 type  7   force =    -0.00001067    0.00402234    0.01279360
     atom   12 type  7   force =    -0.00230240   -0.01204169    0.01129532
     atom   13 type  7   force =     0.00230240   -0.01204169   -0.01129537
     atom   14 type  1   force =    -0.00080415   -0.00225070   -0.01023187
     atom   15 type  1   force =     0.00080415   -0.00225070    0.01023187
     atom   16 type  6   force =    -0.00010573    0.00010206    0.00636852
     atom   17 type  6   force =     0.00010572    0.00010206   -0.00636852
     atom   18 type  6   force =    -0.00069385    0.00092010   -0.00669520
     atom   19 type  6   force =     0.00069385    0.00092010    0.00669520
     atom   20 type  6   force =    -0.00099932   -0.00016218    0.00670062
     atom   21 type  6   force =     0.00099932   -0.00016218   -0.00670062
     atom   22 type  6   force =     0.00009670    0.00008940   -0.00315808
     atom   23 type  6   force =    -0.00009670    0.00008940    0.00315808
     atom   24 type  6   force =     0.00469465   -0.00196303   -0.00582393
     atom   25 type  6   force =    -0.00469465   -0.00196303    0.00582391
     atom   26 type  6   force =    -0.00368850    0.00087369   -0.00719456
     atom   27 type  6   force =     0.00368851    0.00087369    0.00719454
     atom   28 type  6   force =    -0.00167927    0.00242772    0.00740848
     atom   29 type  6   force =     0.00167927    0.00242772   -0.00740848
     atom   30 type  6   force =     0.00102600   -0.00236844   -0.00732694
     atom   31 type  6   force =    -0.00102600   -0.00236844    0.00732694
     atom   32 type  6   force =    -0.00251396   -0.00355893   -0.00656431
     atom   33 type  6   force =     0.00251394   -0.00355893    0.00656433
     atom   34 type  6   force =     0.00097625    0.00435085    0.00643732
     atom   35 type  6   force =    -0.00097625    0.00435085   -0.00643732
     atom   36 type  6   force =     0.00167292   -0.00151632    0.01096830
     atom   37 type  6   force =    -0.00167291   -0.00151632   -0.01096830
     atom   38 type  6   force =     0.00019795   -0.00179053    0.01096924
     atom   39 type  6   force =    -0.00019794   -0.00179052   -0.01096922
     atom   40 type  3   force =     0.00000000    0.00000000    0.00000000
     atom   41 type  3   force =     0.00000000    0.00000000    0.00000000
     atom   42 type  3   force =     0.00000000    0.00000000    0.00000000
     atom   43 type  3   force =     0.00000000    0.00000000    0.00000000
     atom   44 type  2   force =     0.00000000   -0.00471230   -0.00000000
     The Hubbard contrib.    to forces
     atom    1 type  4   force =     0.00000000    0.00000000    0.00000000
     atom    2 type  4   force =     0.00000000    0.00000000    0.00000000
     atom    3 type  5   force =     0.00000000    0.00000000    0.00000000
     atom    4 type  5   force =     0.00000000    0.00000000    0.00000000
     atom    5 type  5   force =     0.00000000    0.00000000    0.00000000
     atom    6 type  5   force =     0.00000000    0.00000000    0.00000000
     atom    7 type  5   force =     0.00000000    0.00000000    0.00000000
     atom    8 type  7   force =     0.00000000    0.00000000    0.00000000
     atom    9 type  7   force =     0.00000000    0.00000000    0.00000000
     atom   10 type  7   force =     0.00000000    0.00000000    0.00000000
     atom   11 type  7   force =     0.00000000    0.00000000    0.00000000
     atom   12 type  7   force =     0.00000000    0.00000000    0.00000000
     atom   13 type  7   force =     0.00000000    0.00000000    0.00000000
     atom   14 type  1   force =     0.00000000    0.00000000    0.00000000
     atom   15 type  1   force =     0.00000000    0.00000000    0.00000000
     atom   16 type  6   force =     0.00000000    0.00000000    0.00000000
     atom   17 type  6   force =     0.00000000    0.00000000    0.00000000
     atom   18 type  6   force =     0.00000000    0.00000000    0.00000000
     atom   19 type  6   force =     0.00000000    0.00000000    0.00000000
     atom   20 type  6   force =     0.00000000    0.00000000    0.00000000
     atom   21 type  6   force =     0.00000000    0.00000000    0.00000000
     atom   22 type  6   force =     0.00000000    0.00000000    0.00000000
     atom   23 type  6   force =     0.00000000    0.00000000    0.00000000
     atom   24 type  6   force =     0.00000000    0.00000000    0.00000000
     atom   25 type  6   force =     0.00000000    0.00000000    0.00000000
     atom   26 type  6   force =     0.00000000    0.00000000    0.00000000
     atom   27 type  6   force =     0.00000000    0.00000000    0.00000000
     atom   28 type  6   force =     0.00000000    0.00000000    0.00000000
     atom   29 type  6   force =     0.00000000    0.00000000    0.00000000
     atom   30 type  6   force =     0.00000000    0.00000000    0.00000000
     atom   31 type  6   force =     0.00000000    0.00000000    0.00000000
     atom   32 type  6   force =     0.00000000    0.00000000    0.00000000
     atom   33 type  6   force =     0.00000000    0.00000000    0.00000000
     atom   34 type  6   force =     0.00000000    0.00000000    0.00000000
     atom   35 type  6   force =     0.00000000    0.00000000    0.00000000
     atom   36 type  6   force =     0.00000000    0.00000000    0.00000000
     atom   37 type  6   force =     0.00000000    0.00000000    0.00000000
     atom   38 type  6   force =     0.00000000    0.00000000    0.00000000
     atom   39 type  6   force =     0.00000000    0.00000000    0.00000000
     atom   40 type  3   force =     0.00000000    0.00000000    0.00000000
     atom   41 type  3   force =     0.00000000    0.00000000    0.00000000
     atom   42 type  3   force =     0.00000000    0.00000000    0.00000000
     atom   43 type  3   force =     0.00000000    0.00000000    0.00000000
     atom   44 type  2   force =     0.00000000    0.00000000    0.00000000
     The SCF correction term to forces
     atom    1 type  4   force =     0.00000000    0.00001100   -0.00000000
     atom    2 type  4   force =     0.00000000   -0.00001045   -0.00000000
     atom    3 type  5   force =    -0.00000000    0.00001679   -0.00000000
     atom    4 type  5   force =    -0.00000000   -0.00000386   -0.00000000
     atom    5 type  5   force =     0.00000000   -0.00002498   -0.00000000
     atom    6 type  5   force =     0.00000000    0.00002717    0.00000000
     atom    7 type  5   force =    -0.00000000   -0.00000121   -0.00000000
     atom    8 type  7   force =    -0.00000314   -0.00000342   -0.00000459
     atom    9 type  7   force =     0.00000314   -0.00000342    0.00000459
     atom   10 type  7   force =     0.00000218   -0.00000110    0.00001583
     atom   11 type  7   force =    -0.00000218   -0.00000110   -0.00001583
     atom   12 type  7   force =     0.00000207    0.00000045   -0.00001806
     atom   13 type  7   force =    -0.00000207    0.00000045    0.00001806
     atom   14 type  1   force =    -0.00000085    0.00000245    0.00000345
     atom   15 type  1   force =     0.00000085    0.00000245   -0.00000345
     atom   16 type  6   force =     0.00000049    0.00000200   -0.00000906
     atom   17 type  6   force =    -0.00000049    0.00000200    0.00000906
     atom   18 type  6   force =     0.00000579    0.00000285    0.00001619
     atom   19 type  6   force =    -0.00000579    0.00000285   -0.00001619
     atom   20 type  6   force =     0.00000030   -0.00000314   -0.00002587
     atom   21 type  6   force =    -0.00000030   -0.00000314    0.00002587
     atom   22 type  6   force =    -0.00000029   -0.00000244    0.00000742
     atom   23 type  6   force =     0.00000029   -0.00000244   -0.00000742
     atom   24 type  6   force =    -0.00000231   -0.00000275   -0.00000570
     atom   25 type  6   force =     0.00000231   -0.00000275    0.00000570
     atom   26 type  6   force =    -0.00000055   -0.00000300   -0.00001308
     atom   27 type  6   force =     0.00000055   -0.00000300    0.00001308
     atom   28 type  6   force =     0.00000036   -0.00000090    0.00001885
     atom   29 type  6   force =    -0.00000036   -0.00000090   -0.00001885
     atom   30 type  6   force =     0.00000177   -0.00000086   -0.00001758
     atom   31 type  6   force =    -0.00000177   -0.00000086    0.00001758
     atom   32 type  6   force =    -0.00000105    0.00000387   -0.00001399
     atom   33 type  6   force =     0.00000105    0.00000387    0.00001399
     atom   34 type  6   force =    -0.00000148    0.00000047    0.00000636
     atom   35 type  6   force =     0.00000148    0.00000047   -0.00000636
     atom   36 type  6   force =    -0.00000920   -0.00000447   -0.00001411
     atom   37 type  6   force =     0.00000920   -0.00000447    0.00001411
     atom   38 type  6   force =    -0.00000058    0.00000609   -0.00001070
     atom   39 type  6   force =     0.00000058    0.00000609    0.00001070
     atom   40 type  3   force =    -0.00000058    0.00000015   -0.00000243
     atom   41 type  3   force =     0.00000058    0.00000015    0.00000243
     atom   42 type  3   force =     0.00000011    0.00000014   -0.00000104
     atom   43 type  3   force =    -0.00000011    0.00000014    0.00000104
     atom   44 type  2   force =    -0.00000000   -0.00002962   -0.00000000

     DFT-D3 dispersion contribution to forces:
     atom    1 type  4   force =    -0.00000000    0.00045045    0.00000000
     atom    2 type  4   force =     0.00000000   -0.00026699    0.00000000
     atom    3 type  5   force =     0.00000000    0.00027572   -0.00000000
     atom    4 type  5   force =     0.00000000    0.00064529   -0.00000000
     atom    5 type  5   force =     0.00000000   -0.00055354    0.00000000
     atom    6 type  5   force =    -0.00000000    0.00110994    0.00000000
     atom    7 type  5   force =     0.00000000   -0.00022920   -0.00000000
     atom    8 type  7   force =     0.00006749   -0.00003703   -0.00037588
     atom    9 type  7   force =    -0.00006749   -0.00003703    0.00037588
     atom   10 type  7   force =     0.00018388    0.00001686    0.00013865
     atom   11 type  7   force =    -0.00018388    0.00001686   -0.00013865
     atom   12 type  7   force =     0.00007874    0.00017610   -0.00015777
     atom   13 type  7   force =    -0.00007874    0.00017610    0.00015777
     atom   14 type  1   force =     0.00010257   -0.00002989   -0.00100348
     atom   15 type  1   force =    -0.00010257   -0.00002989    0.00100348
     atom   16 type  6   force =    -0.00000982    0.00007593    0.00044607
     atom   17 type  6   force =     0.00000982    0.00007593   -0.00044607
     atom   18 type  6   force =     0.00003687   -0.00002812   -0.00038249
     atom   19 type  6   force =    -0.00003687   -0.00002812    0.00038249
     atom   20 type  6   force =     0.00011635   -0.00004970    0.00038810
     atom   21 type  6   force =    -0.00011635   -0.00004970   -0.00038810
     atom   22 type  6   force =     0.00000507   -0.00005734    0.00012848
     atom   23 type  6   force =    -0.00000507   -0.00005734   -0.00012848
     atom   24 type  6   force =    -0.00018033    0.00099913    0.00011597
     atom   25 type  6   force =     0.00018033    0.00099914   -0.00011597
     atom   26 type  6   force =     0.00080401    0.00009054    0.00015561
     atom   27 type  6   force =    -0.00080401    0.00009054   -0.00015561
     atom   28 type  6   force =     0.00042461   -0.00059475   -0.00013165
     atom   29 type  6   force =    -0.00042461   -0.00059475    0.00013165
     atom   30 type  6   force =    -0.00026482    0.00040914    0.00017633
     atom   31 type  6   force =     0.00026482    0.00040914   -0.00017633
     atom   32 type  6   force =     0.00086681   -0.00044089    0.00036570
     atom   33 type  6   force =    -0.00086681   -0.00044089   -0.00036570
     atom   34 type  6   force =     0.00062297   -0.00050490   -0.00032284
     atom   35 type  6   force =    -0.00062297   -0.00050490    0.00032284
     atom   36 type  6   force =    -0.00004070    0.00004647   -0.00048231
     atom   37 type  6   force =     0.00004070    0.00004647    0.00048231
     atom   38 type  6   force =    -0.00001471    0.00007893   -0.00055030
     atom   39 type  6   force =     0.00001471    0.00007893    0.00055030
     atom   40 type  3   force =     0.00013204    0.00004983   -0.00017226
     atom   41 type  3   force =    -0.00013204    0.00004983    0.00017226
     atom   42 type  3   force =     0.00009318   -0.00046635   -0.00026349
     atom   43 type  3   force =    -0.00009318   -0.00046635    0.00026349
     atom   44 type  2   force =    -0.00000000   -0.00089961   -0.00000000

     Total force =     0.003791     Total SCF correction =     0.000098

     DFT-D3 dispersion Force =     0.004163
     Energy error            =      2.8E-05 Ry
     Gradient error          =      9.8E-04 Ry/Bohr

     bfgs converged in  17 scf cycles and  16 bfgs steps
     (criteria: energy <  1.0E-04 Ry, force <  1.0E-03 Ry/Bohr)

     End of BFGS Geometry Optimization

     Final energy             =   -2631.2400440871 Ry

     File ./temp/phl-fe1-fe3.bfgs deleted, as requested
Begin final coordinates

ATOMIC_POSITIONS (crystal)
K                0.0000000000        0.4931361888        0.0000000000
K                0.5000000000        0.0037113885        0.0000000000
Mg              -0.0000000000        0.0044386990        0.5000000000
Mg              -0.0000000000        0.3299726170        0.5000000000
Mg               0.5000000000        0.4926221906        0.5000000000
Mg               0.5000000000        0.8349556841        0.5000000000
Mg               0.5000000000        0.1719671584        0.5000000000
Si               0.0833030450        0.1652220668        0.2216421686
Si               0.9166969410        0.1652220668        0.7783578614
Si               0.9373665631        0.8350715851        0.7725361627
Si               0.0626334369        0.8350715851        0.2274638373
Si               0.5593013211        0.6663183168        0.2249373759
Si               0.4406986789        0.6663183168        0.7750626091
Al               0.4156511547        0.3309503118        0.7765532977
Al               0.5843488453        0.3309503118        0.2234467023
O                0.1273475850        0.1629740839        0.3841242451
O                0.8726523850        0.1629740839        0.6158757839
O                0.8726221802        0.8367454546        0.6113285116
O                0.1273778198        0.8367454546        0.3886714884
O                0.6125422249        0.6685360982        0.3866159486
O                0.3874577751        0.6685360982        0.6133840514
O                0.3608087747        0.3327020543        0.6042551063
O                0.6391912253        0.3327020543        0.3957448937
O                0.3439391400        0.2016436046        0.1645124321
O                0.6560608600        0.2016436046        0.8354875379
O                0.9927050943        0.9979123651        0.1657892073
O                0.0072949057        0.9979123651        0.8342107777
O                0.6880863322        0.7746648230        0.8338368624
O                0.3119136678        0.7746648230        0.1661631376
O                0.8125608953        0.7323316885        0.1682439020
O                0.1874391047        0.7323316885        0.8317560980
O                0.4950749858        0.5072727280        0.1601631226
O                0.5049249842        0.5072727280        0.8398368924
O                0.1419869749        0.2778462759        0.8414739854
O                0.8580130401        0.2778462759        0.1585260146
O                0.1320723543        0.4988162417        0.3934631625
O                0.8679276607        0.4988162417        0.6065368375
O                0.6330172632        0.9992709015        0.3971978813
O                0.3669827368        0.9992709015        0.6028020887
H                0.0872485314        0.4981510035        0.2974687055
H                0.9127514986        0.4981510035        0.7025312945
H                0.5941146476        0.0164850141        0.3023662820
H                0.4058853524        0.0164850141        0.6976337180
Fe              -0.0000000000        0.6633618912        0.5000000000
End final coordinates

     Writing all to output data dir ./temp/phl-fe1-fe3.save/ :
     XML data file, charge density, pseudopotentials, collected wavefunctions

     General routines

     Parallel routines

     PAW routines

   This run was terminated on:  23:15: 7  17Jan2025

   JOB DONE.