     Program PWSCF v.7.3.1 starts on  2Jan2025 at 19:46:33

     Reading input from relax.in
Warning: card  &CELL ignored
Warning: card    CELL_DOFREE     = 'IBRAV' ignored
Warning: card  / ignored

     Current dimensions of program PWSCF are:
     Max number of different atomic species (ntypx) = 10
     Max number of k-points (npk) =  40000
     Max angular momentum in pseudopotentials (lmaxx) =  4
     file Al.pbe-n-kjpaw_psl.1.0.0.UPF: wavefunction(s)  3S 3P renormalized
     file Fe.pbe-spn-kjpaw_psl.1.0.0.UPF: wavefunction(s)  3P 3D renormalized
     file H.pbe-kjpaw_psl.1.0.0.UPF: wavefunction(s)  1S renormalized
     file K.pbe-spn-kjpaw_psl.1.0.0.UPF: wavefunction(s)  3S renormalized
     file Mg.pbe-spnl-kjpaw_psl.1.0.0.UPF: wavefunction(s)  2P renormalized
     file O.pbe-n-kjpaw_psl.1.0.0.UPF: wavefunction(s)  2S 2P renormalized
     file Si.pbe-n-kjpaw_psl.1.0.0.UPF: wavefunction(s)  3S 3P renormalized

     R & G space division:  proc/nbgrp/npool/nimage =       6
     Subspace diagonalization in iterative solution of the eigenvalue problem:
     one sub-group per band group will be used

     Using Slab Decomposition

     bravais-lattice index     =          -12
     lattice parameter (alat)  =      10.0136  a.u.
     unit-cell volume          =    3303.4414 (a.u.)^3
     number of atoms/cell      =           44
     number of atomic types    =            7
     number of electrons       =       262.00
     number of Kohn-Sham states=          157
     kinetic-energy cutoff     =      60.0000  Ry
     charge density cutoff     =     480.0000  Ry
     scf convergence threshold =      1.0E-06
     mixing beta               =       0.7000
     number of iterations used =            8  plain     mixing
     energy convergence thresh.=      1.0E-04
     force convergence thresh. =      1.0E-03
     Exchange-correlation= SLA  PW   PBX  PBC
                           (   1   4   3   4   0   0   0)
     nstep                     =           50

     celldm(1)=  10.013640  celldm(2)=   1.735306  celldm(3)=   1.926511
     celldm(4)=   0.000000  celldm(5)=  -0.177565  celldm(6)=   0.000000

     crystal axes: (cart. coord. in units of alat)
               a(1) = (   1.000000   0.000000   0.000000 )
               a(2) = (   0.000000   1.735306   0.000000 )
               a(3) = (  -0.342081   0.000000   1.895896 )

     reciprocal axes: (cart. coord. in units 2 pi/alat)
               b(1) = (  1.000000 -0.000000  0.180432 )
               b(2) = (  0.000000  0.576267 -0.000000 )
               b(3) = (  0.000000  0.000000  0.527455 )

     PseudoPot. # 1 for Al read from file:
     ./../../pseudos/Al.pbe-n-kjpaw_psl.1.0.0.UPF
     MD5 check sum: 502b6b27b9c6270cab5dd1084b96fa6d
     Pseudo is Projector augmented-wave + core cor, Zval =  3.0
     Generated using &quot;atomic&quot; code by A. Dal Corso  v.6.3
     Shape of augmentation charge: PSQ
     Using radial grid of 1135 points,  6 beta functions with:
                l(1) =   0
                l(2) =   0
                l(3) =   1
                l(4) =   1
                l(5) =   2
                l(6) =   2
     Q(r) pseudized with 0 coefficients

     PseudoPot. # 2 for Fe read from file:
     ./../../pseudos/Fe.pbe-spn-kjpaw_psl.1.0.0.UPF
     MD5 check sum: fc81f059e5c5069939230b1155715ae8
     Pseudo is Projector augmented-wave + core cor, Zval = 16.0
     Generated using &quot;atomic&quot; code by A. Dal Corso  v.6.3
     Shape of augmentation charge: PSQ
     Using radial grid of 1191 points,  6 beta functions with:
                l(1) =   0
                l(2) =   0
                l(3) =   1
                l(4) =   1
                l(5) =   2
                l(6) =   2
     Q(r) pseudized with 0 coefficients

     PseudoPot. # 3 for H  read from file:
     ./../../pseudos/H.pbe-kjpaw_psl.1.0.0.UPF
     MD5 check sum: d81a744832360e4a8af0b0b5b123bc2a
     Pseudo is Projector augmented-wave, Zval =  1.0
     Generated using &quot;atomic&quot; code by A. Dal Corso  v.6.3MaX
     Shape of augmentation charge: PSQ
     Using radial grid of  929 points,  2 beta functions with:
                l(1) =   0
                l(2) =   0
     Q(r) pseudized with 0 coefficients

     PseudoPot. # 4 for K  read from file:
     ./../../pseudos/K.pbe-spn-kjpaw_psl.1.0.0.UPF
     MD5 check sum: 34cc42130a09071ebe376fd42eb21491
     Pseudo is Projector augmented-wave + core cor, Zval =  9.0
     Generated using &quot;atomic&quot; code by A. Dal Corso  v.6.2.2
     Shape of augmentation charge: PSQ
     Using radial grid of 1165 points,  6 beta functions with:
                l(1) =   0
                l(2) =   0
                l(3) =   1
                l(4) =   1
                l(5) =   2
                l(6) =   2
     Q(r) pseudized with 0 coefficients

     PseudoPot. # 5 for Mg read from file:
     ./../../pseudos/Mg.pbe-spnl-kjpaw_psl.1.0.0.UPF
     MD5 check sum: fda14e0d92a6a9a5ebed782e5a4b3067
     Pseudo is Projector augmented-wave + core cor, Zval = 10.0
     Generated using &quot;atomic&quot; code by A. Dal Corso  v.6.3
     Shape of augmentation charge: PSQ
     Using radial grid of 1129 points,  4 beta functions with:
                l(1) =   0
                l(2) =   0
                l(3) =   1
                l(4) =   1
     Q(r) pseudized with 0 coefficients

     PseudoPot. # 6 for O  read from file:
     ./../../pseudos/O.pbe-n-kjpaw_psl.1.0.0.UPF
     MD5 check sum: e99d9cef9b487d1ca56f5b95ecd0fd7a
     Pseudo is Projector augmented-wave + core cor, Zval =  6.0
     Generated using &quot;atomic&quot; code by A. Dal Corso  v.6.3
     Shape of augmentation charge: PSQ
     Using radial grid of 1095 points,  4 beta functions with:
                l(1) =   0
                l(2) =   0
                l(3) =   1
                l(4) =   1
     Q(r) pseudized with 0 coefficients

     PseudoPot. # 7 for Si read from file:
     ./../../pseudos/Si.pbe-n-kjpaw_psl.1.0.0.UPF
     MD5 check sum: c39c59da582df4a0d9f10159256ea34e
     Pseudo is Projector augmented-wave + core cor, Zval =  4.0
     Generated using &quot;atomic&quot; code by A. Dal Corso  v.6.3
     Shape of augmentation charge: PSQ
     Using radial grid of 1141 points,  6 beta functions with:
                l(1) =   0
                l(2) =   0
                l(3) =   1
                l(4) =   1
                l(5) =   2
                l(6) =   2
     Q(r) pseudized with 0 coefficients

     atomic species   valence    mass     pseudopotential
     Al                3.00    26.98154     Al( 1.00)
     Fe               16.00    55.84500     Fe( 1.00)
     H                 1.00     1.00794     H ( 1.00)
     K                 9.00    39.09830     K ( 1.00)
     Mg               10.00    24.30500     Mg( 1.00)
     O                 6.00    15.99940     O ( 1.00)
     Si                4.00    28.08550     Si( 1.00)

      2 Sym. Ops. (no inversion) found

                                    s                        frac. trans.

      isym =  1     identity

 cryst.   s( 1) = (     1          0          0      )
                  (     0          1          0      )
                  (     0          0          1      )

 cart.    s( 1) = (  1.0000000  0.0000000 -0.0000000 )
                  (  0.0000000  1.0000000  0.0000000 )
                  (  0.0000000  0.0000000  1.0000000 )

      isym =  2     180 deg rotation - cart. axis [0,1,0]

 cryst.   s( 2) = (    -1          0          0      )
                  (     0          1          0      )
                  (     0          0         -1      )

 cart.    s( 2) = ( -1.0000000  0.0000000  0.0000000 )
                  (  0.0000000  1.0000000  0.0000000 )
                  (  0.0000000  0.0000000 -1.0000000 )

     point group C_2  (2)
     there are  2 classes
     the character table:

       E     C2
A      1.00  1.00
B      1.00 -1.00

     the symmetry operations in each class and the name of the first element:

     E        1
          identity
     C2       2
          180 deg rotation - cart. axis [0,1,0]

   Cartesian axes

     site n.     atom                  positions (alat units)
         1        K      tau(   1) = (   0.0000000   0.8559224   0.0000000  )
         2        K      tau(   2) = (   0.5000000   0.0093568   0.0000000  )
         3        Mg     tau(   3) = (  -0.1710407   0.5780843   0.9479482  )
         4        Mg     tau(   4) = (  -0.1710407   1.1543881   0.9479482  )
         5        Mg     tau(   5) = (   0.3289593   0.8562226   0.9479482  )
         6        Mg     tau(   6) = (   0.3289593   1.4480089   0.9479482  )
         7        Mg     tau(   7) = (   0.3289593   0.2986375   0.9479482  )
         8        Si     tau(   8) = (   0.0066674   0.2865251   0.4219393  )
         9        Si     tau(   9) = (   0.6512512   0.2865251   1.4739571  )
        10        Si     tau(  10) = (   0.6701371   1.4476688   1.4628623  )
        11        Si     tau(  11) = (  -0.0122184   1.4476688   0.4330341  )
        12        Si     tau(  12) = (   0.4872056   1.1568454   0.4292651  )
        13        Si     tau(  13) = (   0.1707131   1.1568454   1.4666313  )
        14        Al     tau(  14) = (   0.1506005   0.5746762   1.4713786  )
        15        Al     tau(  15) = (   0.5073182   0.5746762   0.4245178  )
        16        O      tau(  16) = (  -0.0043508   0.2833738   0.7297400  )
        17        O      tau(  17) = (   0.6622695   0.2833738   1.1661564  )
        18        O      tau(  18) = (   0.6658139   1.4451231   1.1576912  )
        19        O      tau(  19) = (  -0.0078952   1.4451231   0.7382052  )
        20        O      tau(  20) = (   0.4926234   1.1618863   0.7357690  )
        21        O      tau(  21) = (   0.1652953   1.1618863   1.1601274  )
        22        O      tau(  22) = (   0.1548298   0.5779784   1.1454267  )
        23        O      tau(  23) = (   0.5030889   0.5779784   0.7504697  )
        24        O      tau(  24) = (   0.2847398   0.3548857   0.3143567  )
        25        O      tau(  25) = (   0.3731789   0.3548857   1.5815397  )
        26        O      tau(  26) = (   0.9404978   1.7303189   0.3181314  )
        27        O      tau(  27) = (  -0.2825791   1.7303189   1.5777650  )
        28        O      tau(  28) = (   0.3988927   1.3439356   1.5754330  )
        29        O      tau(  29) = (   0.2590260   1.3439356   0.3204634  )
        30        O      tau(  30) = (   0.7582660   1.2710892   0.3185125  )
        31        O      tau(  31) = (  -0.1003473   1.2710892   1.5773839  )
        32        O      tau(  32) = (   0.4432368   0.8811364   0.3085875  )
        33        O      tau(  33) = (   0.2146819   0.8811364   1.5873090  )
        34        O      tau(  34) = (  -0.1423236   0.4782556   1.5925436  )
        35        O      tau(  35) = (   0.8002423   0.4782556   0.3033529  )
        36        O      tau(  36) = (  -0.0041068   0.8750247   0.7469263  )
        37        O      tau(  37) = (   0.6620255   0.8750247   1.1489701  )
        38        O      tau(  38) = (   0.4966158   1.7335917   0.7534577  )
        39        O      tau(  39) = (   0.1613029   1.7335917   1.1424387  )
[...]
     atom    2 type  4   force =     0.00000000    0.00000000    0.00000000
     atom    3 type  5   force =     0.00000000    0.00000000    0.00000000
     atom    4 type  5   force =     0.00000000    0.00000000    0.00000000
     atom    5 type  5   force =     0.00000000    0.00000000    0.00000000
     atom    6 type  5   force =     0.00000000    0.00000000    0.00000000
     atom    7 type  5   force =     0.00000000    0.00000000    0.00000000
     atom    8 type  7   force =     0.00000000    0.00000000    0.00000000
     atom    9 type  7   force =     0.00000000    0.00000000    0.00000000
     atom   10 type  7   force =     0.00000000    0.00000000    0.00000000
     atom   11 type  7   force =     0.00000000    0.00000000    0.00000000
     atom   12 type  7   force =     0.00000000    0.00000000    0.00000000
     atom   13 type  7   force =     0.00000000    0.00000000    0.00000000
     atom   14 type  1   force =     0.00000000    0.00000000    0.00000000
     atom   15 type  1   force =     0.00000000    0.00000000    0.00000000
     atom   16 type  6   force =     0.00000000    0.00000000    0.00000000
     atom   17 type  6   force =     0.00000000    0.00000000    0.00000000
     atom   18 type  6   force =     0.00000000    0.00000000    0.00000000
     atom   19 type  6   force =     0.00000000    0.00000000    0.00000000
     atom   20 type  6   force =     0.00000000    0.00000000    0.00000000
     atom   21 type  6   force =     0.00000000    0.00000000    0.00000000
     atom   22 type  6   force =     0.00000000    0.00000000    0.00000000
     atom   23 type  6   force =     0.00000000    0.00000000    0.00000000
     atom   24 type  6   force =     0.00000000    0.00000000    0.00000000
     atom   25 type  6   force =     0.00000000    0.00000000    0.00000000
     atom   26 type  6   force =     0.00000000    0.00000000    0.00000000
     atom   27 type  6   force =     0.00000000    0.00000000    0.00000000
     atom   28 type  6   force =     0.00000000    0.00000000    0.00000000
     atom   29 type  6   force =     0.00000000    0.00000000    0.00000000
     atom   30 type  6   force =     0.00000000    0.00000000    0.00000000
     atom   31 type  6   force =     0.00000000    0.00000000    0.00000000
     atom   32 type  6   force =     0.00000000    0.00000000    0.00000000
     atom   33 type  6   force =     0.00000000    0.00000000    0.00000000
     atom   34 type  6   force =     0.00000000    0.00000000    0.00000000
     atom   35 type  6   force =     0.00000000    0.00000000    0.00000000
     atom   36 type  6   force =     0.00000000    0.00000000    0.00000000
     atom   37 type  6   force =     0.00000000    0.00000000    0.00000000
     atom   38 type  6   force =     0.00000000    0.00000000    0.00000000
     atom   39 type  6   force =     0.00000000    0.00000000    0.00000000
     atom   40 type  3   force =     0.00000000    0.00000000    0.00000000
     atom   41 type  3   force =     0.00000000    0.00000000    0.00000000
     atom   42 type  3   force =     0.00000000    0.00000000    0.00000000
     atom   43 type  3   force =     0.00000000    0.00000000    0.00000000
     atom   44 type  2   force =     0.00000000    0.00000000    0.00000000
     The SCF correction term to forces
     atom    1 type  4   force =    -0.00000000   -0.00000272    0.00000000
     atom    2 type  4   force =     0.00000000    0.00000262    0.00000000
     atom    3 type  5   force =     0.00000000   -0.00009334   -0.00000000
     atom    4 type  5   force =     0.00000000    0.00001495   -0.00000000
     atom    5 type  5   force =    -0.00000000    0.00002788    0.00000000
     atom    6 type  5   force =    -0.00000000    0.00005878   -0.00000000
     atom    7 type  5   force =    -0.00000000    0.00000281   -0.00000000
     atom    8 type  7   force =    -0.00000113   -0.00000764    0.00001520
     atom    9 type  7   force =     0.00000113   -0.00000764   -0.00001520
     atom   10 type  7   force =    -0.00000130    0.00000849   -0.00000541
     atom   11 type  7   force =     0.00000130    0.00000849    0.00000541
     atom   12 type  7   force =     0.00000265    0.00000846    0.00000755
     atom   13 type  7   force =    -0.00000265    0.00000846   -0.00000755
     atom   14 type  1   force =    -0.00000241   -0.00000571   -0.00000068
     atom   15 type  1   force =     0.00000241   -0.00000571    0.00000068
     atom   16 type  6   force =    -0.00000472   -0.00001683    0.00002319
     atom   17 type  6   force =     0.00000472   -0.00001683   -0.00002319
     atom   18 type  6   force =     0.00000555    0.00004478   -0.00001332
     atom   19 type  6   force =    -0.00000555    0.00004478    0.00001332
     atom   20 type  6   force =     0.00000168    0.00002014   -0.00000072
     atom   21 type  6   force =    -0.00000168    0.00002014    0.00000072
     atom   22 type  6   force =    -0.00000816   -0.00003274   -0.00001169
     atom   23 type  6   force =     0.00000816   -0.00003274    0.00001169
     atom   24 type  6   force =     0.00000066   -0.00003613    0.00000740
     atom   25 type  6   force =    -0.00000066   -0.00003613   -0.00000740
     atom   26 type  6   force =     0.00000773   -0.00000544   -0.00003022
     atom   27 type  6   force =    -0.00000773   -0.00000544    0.00003022
     atom   28 type  6   force =     0.00000349    0.00003342   -0.00000442
     atom   29 type  6   force =    -0.00000349    0.00003342    0.00000442
     atom   30 type  6   force =     0.00000590    0.00001377    0.00001734
     atom   31 type  6   force =    -0.00000590    0.00001377   -0.00001734
     atom   32 type  6   force =     0.00001731    0.00000093   -0.00000082
     atom   33 type  6   force =    -0.00001731    0.00000093    0.00000082
     atom   34 type  6   force =    -0.00000082   -0.00001179   -0.00000914
     atom   35 type  6   force =     0.00000082   -0.00001179    0.00000914
     atom   36 type  6   force =    -0.00000281   -0.00001608   -0.00002299
     atom   37 type  6   force =     0.00000281   -0.00001608    0.00002299
     atom   38 type  6   force =    -0.00000170    0.00001226    0.00002136
     atom   39 type  6   force =     0.00000170    0.00001226   -0.00002136
     atom   40 type  3   force =    -0.00000072   -0.00000179   -0.00000516
     atom   41 type  3   force =     0.00000072   -0.00000179    0.00000516
     atom   42 type  3   force =    -0.00000054    0.00000080    0.00000126
     atom   43 type  3   force =     0.00000054    0.00000080   -0.00000126
     atom   44 type  2   force =     0.00000000    0.00006147    0.00000000

     DFT-D3 dispersion contribution to forces:
     atom    1 type  4   force =    -0.00000000    0.00062687    0.00000000
     atom    2 type  4   force =     0.00000000   -0.00041991    0.00000000
     atom    3 type  5   force =     0.00000000    0.00052753   -0.00000000
     atom    4 type  5   force =    -0.00000000   -0.00091629   -0.00000000
     atom    5 type  5   force =     0.00000000   -0.00060424    0.00000000
     atom    6 type  5   force =    -0.00000000    0.00147374    0.00000000
     atom    7 type  5   force =     0.00000000   -0.00044385   -0.00000000
     atom    8 type  7   force =     0.00007741   -0.00016472   -0.00013266
     atom    9 type  7   force =    -0.00007741   -0.00016472    0.00013266
     atom   10 type  7   force =     0.00001164    0.00015034    0.00009183
     atom   11 type  7   force =    -0.00001164    0.00015034   -0.00009183
     atom   12 type  7   force =    -0.00006235    0.00011938   -0.00027331
     atom   13 type  7   force =     0.00006235    0.00011938    0.00027331
     atom   14 type  1   force =     0.00005515    0.00013431   -0.00103874
     atom   15 type  1   force =    -0.00005515    0.00013431    0.00103874
     atom   16 type  6   force =     0.00000542    0.00013977    0.00038930
     atom   17 type  6   force =    -0.00000542    0.00013977   -0.00038930
     atom   18 type  6   force =     0.00000118   -0.00003599   -0.00031570
     atom   19 type  6   force =    -0.00000118   -0.00003599    0.00031570
     atom   20 type  6   force =    -0.00000066   -0.00007408    0.00036731
     atom   21 type  6   force =     0.00000066   -0.00007408   -0.00036731
     atom   22 type  6   force =    -0.00004793   -0.00000762    0.00010013
     atom   23 type  6   force =     0.00004793   -0.00000762   -0.00010013
     atom   24 type  6   force =    -0.00014867    0.00093373    0.00018424
     atom   25 type  6   force =     0.00014867    0.00093373   -0.00018423
     atom   26 type  6   force =     0.00083366    0.00007082    0.00016396
     atom   27 type  6   force =    -0.00083366    0.00007082   -0.00016396
     atom   28 type  6   force =     0.00041660   -0.00061009   -0.00010449
     atom   29 type  6   force =    -0.00041660   -0.00061009    0.00010449
     atom   30 type  6   force =    -0.00026237    0.00041334    0.00013678
     atom   31 type  6   force =     0.00026237    0.00041334   -0.00013678
     atom   32 type  6   force =     0.00089914   -0.00042764    0.00037021
     atom   33 type  6   force =    -0.00089914   -0.00042764   -0.00037021
     atom   34 type  6   force =     0.00062667   -0.00049079   -0.00034499
     atom   35 type  6   force =    -0.00062667   -0.00049079    0.00034499
     atom   36 type  6   force =    -0.00000939   -0.00003999   -0.00050156
     atom   37 type  6   force =     0.00000939   -0.00003999    0.00050156
     atom   38 type  6   force =    -0.00009537    0.00004163   -0.00059264
     atom   39 type  6   force =     0.00009537    0.00004163    0.00059264
     atom   40 type  3   force =    -0.00001602    0.00010096   -0.00024568
     atom   41 type  3   force =     0.00001602    0.00010096    0.00024568
     atom   42 type  3   force =    -0.00018367   -0.00039985   -0.00026632
     atom   43 type  3   force =     0.00018367   -0.00039985    0.00026632
     atom   44 type  2   force =     0.00000000    0.00004911   -0.00000000

     Total force =     0.002385     Total SCF correction =     0.000199

     DFT-D3 dispersion Force =     0.004293

     Computing stress (Cartesian axis) and pressure

          total   stress  (Ry/bohr**3)                   (kbar)     P=        9.10
   0.00003776   0.00000000   0.00000821            5.55        0.00        1.21
   0.00000000   0.00005099   0.00000000            0.00        7.50        0.00
   0.00000821   0.00000000   0.00009673            1.21        0.00       14.23

     kinetic stress (kbar)  20836.14      0.00     20.44
                                0.00  20837.00      0.00
                               20.44      0.00  20544.46

     local   stress (kbar) -40012.02      0.00    204.63
                                0.00 -38979.85      0.00
                              204.63      0.00  17738.71

     nonloc. stress (kbar)   3918.12      0.00     -2.20
                                0.00   3920.22      0.00
                               -2.20      0.00   3904.07

     hartree stress (kbar)  22733.69     -0.00    -89.49
                               -0.00  22244.45     -0.00
                              -89.49     -0.00  -5503.95

     exc-cor stress (kbar)  -2916.27     -0.00     -0.04
                               -0.00  -2916.59     -0.00
                               -0.04     -0.00  -2913.43

     corecor stress (kbar)  -1922.30      0.00     -0.05
                                0.00  -1922.49      0.00
                               -0.05      0.00  -1923.90

     ewald   stress (kbar)  -2616.24     -0.00   -132.18
                               -0.00  -3159.50     -0.00
                             -132.18     -0.00 -31819.83

     hubbard stress (kbar)      0.00      0.00      0.00
                                0.00      0.00      0.00
                                0.00      0.00      0.00

     DFT-D   stress (kbar)    -15.57     -0.00      0.11
                               -0.00    -15.74     -0.00
                                0.11     -0.00    -11.89

     XDM     stress (kbar)      0.00      0.00      0.00
                                0.00      0.00      0.00
                                0.00      0.00      0.00

     dft-nl  stress (kbar)      0.00      0.00      0.00
                                0.00      0.00      0.00
                                0.00      0.00      0.00

     TS-vdW  stress (kbar)      0.00      0.00      0.00
                                0.00      0.00      0.00
                                0.00      0.00      0.00

     MDB     stress (kbar)      0.00      0.00      0.00
                                0.00      0.00      0.00
                                0.00      0.00      0.00

     3D-RISM stress (kbar)      0.00      0.00      0.00
                                0.00      0.00      0.00
                                0.00      0.00      0.00

     Energy error            =      1.2E-05 Ry
     Gradient error          =      8.2E-04 Ry/Bohr

     bfgs converged in  16 scf cycles and  15 bfgs steps
     (criteria: energy <  1.0E-04 Ry, force <  1.0E-03 Ry/Bohr)

     End of BFGS Geometry Optimization

     Final energy             =   -2631.1931972637 Ry

     File ./temp/phl-fe1-fe1-nspin.bfgs deleted, as requested
Begin final coordinates

ATOMIC_POSITIONS (crystal)
K                0.0000000000        0.4928974958        0.0000000000
K                0.5000000000        0.0045667586        0.0000000000
Mg              -0.0000000000        0.3297921871        0.5000000000
Mg              -0.0000000000        0.6666573343        0.5000000000
Mg               0.5000000000        0.4931258530        0.5000000000
Mg               0.5000000000        0.8368207723        0.5000000000
Mg               0.5000000000        0.1705857635        0.5000000000
Si               0.0813123913        0.1638015868        0.2231582113
Si               0.9186875947        0.1638015868        0.7768418187
Si               0.9379361201        0.8356004616        0.7710287739
Si               0.0620638799        0.8356004616        0.2289712261
Si               0.5616386126        0.6667691326        0.2273196753
Si               0.4383613874        0.6667691326        0.7726803097
Al               0.4167190574        0.3311022745        0.7750380394
Al               0.5832809426        0.3311022745        0.2249619606
O                0.1254312084        0.1595953959        0.3861628222
O                0.8745687616        0.1595953959        0.6138372068
O                0.8758910828        0.8362480307        0.6094761217
O                0.1241089172        0.8362480307        0.3905238783
O                0.6240797113        0.6697387529        0.3889223566
O                0.3759202887        0.6697387529        0.6110776434
O                0.3618705571        0.3325877094        0.6031343018
O                0.6381294429        0.3325877094        0.3968656982
O                0.3414694946        0.2023517529        0.1664750736
O                0.6585305054        0.2023517529        0.8335248964
O                0.9906064756        0.9974480832        0.1659037621
O                0.0093935244        0.9974480832        0.8340962229
O                0.6864248011        0.7751108855        0.8300554383
O                0.3135751989        0.7751108855        0.1699445617
O                0.8129009673        0.7325751805        0.1684878036
O                0.1870990327        0.7325751805        0.8315121964
O                0.4945973438        0.5079100563        0.1625316293
O                0.5054026262        0.5079100563        0.8374683857
O                0.1434809636        0.2769644810        0.8397959846
O                0.8565190514        0.2769644810        0.1602040154
O                0.1293565896        0.5040873783        0.3939764169
O                0.8706434254        0.5040873783        0.6060235831
O                0.6396533969        0.9999247726        0.3993847241
O                0.3603466031        0.9999247726        0.6006152459
H                0.0980396602        0.4948753699        0.2982564656
H                0.9019603698        0.4948753699        0.7017435344
H                0.6227231799        0.0155697709        0.3044107906
H                0.3772768201        0.0155697709        0.6955892094
Fe              -0.0000000000        0.0010267377        0.5000000000
End final coordinates

     Writing all to output data dir ./temp/phl-fe1-fe1-nspin.save/ :
     XML data file, charge density, pseudopotentials, collected wavefunctions

     General routines

     Parallel routines

     PAW routines

   This run was terminated on:   8:13:30   3Jan2025

   JOB DONE.