     Program PWSCF v.7.3.1 starts on  4Feb2025 at 13:49:39

     Reading input from relax.in

     Current dimensions of program PWSCF are:
     Max number of different atomic species (ntypx) = 10
     Max number of k-points (npk) =  40000
     Max angular momentum in pseudopotentials (lmaxx) =  4

     File ./temp/phl-fe1-fe2x2.update deleted, as requested
     file Al.pbe-n-kjpaw_psl.1.0.0.UPF: wavefunction(s)  3S 3P renormalized
     file Fe.pbe-spn-kjpaw_psl.1.0.0.UPF: wavefunction(s)  3P 3D renormalized
     file Fe.pbe-spn-kjpaw_psl.1.0.0.UPF: wavefunction(s)  3P 3D renormalized
     file H.pbe-kjpaw_psl.1.0.0.UPF: wavefunction(s)  1S renormalized
     file K.pbe-spn-kjpaw_psl.1.0.0.UPF: wavefunction(s)  3S renormalized
     file Mg.pbe-spnl-kjpaw_psl.1.0.0.UPF: wavefunction(s)  2P renormalized
     file O.pbe-n-kjpaw_psl.1.0.0.UPF: wavefunction(s)  2S 2P renormalized
     file Si.pbe-n-kjpaw_psl.1.0.0.UPF: wavefunction(s)  3S 3P renormalized

     R & G space division:  proc/nbgrp/npool/nimage =       6
     Subspace diagonalization in iterative solution of the eigenvalue problem:
     one sub-group per band group will be used

     Using Slab Decomposition

     bravais-lattice index     =          -12
     lattice parameter (alat)  =      20.1351  a.u.
     unit-cell volume          =    6828.4878 (a.u.)^3
     number of atoms/cell      =           88
     number of atomic types    =            8
     number of electrons       =       524.00
     number of Kohn-Sham states=          314
     kinetic-energy cutoff     =      60.0000  Ry
     charge density cutoff     =     480.0000  Ry
     scf convergence threshold =      1.0E-06
     mixing beta               =       0.7000
     number of iterations used =            8  plain     mixing
     energy convergence thresh.=      1.0E-04
     force convergence thresh. =      1.0E-03
     Exchange-correlation= SLA  PW   PBX  PBC
                           (   1   4   3   4   0   0   0)
     nstep                     =           50

     celldm(1)=  20.135087  celldm(2)=   0.869801  celldm(3)=   0.977339
     celldm(4)=   0.000000  celldm(5)=  -0.178119  celldm(6)=   0.000000

     crystal axes: (cart. coord. in units of alat)
               a(1) = (   1.000000   0.000000   0.000000 )
               a(2) = (   0.000000   0.869801   0.000000 )
               a(3) = (  -0.174083   0.000000   0.961710 )

     reciprocal axes: (cart. coord. in units 2 pi/alat)
               b(1) = (  1.000000 -0.000000  0.181014 )
               b(2) = (  0.000000  1.149688 -0.000000 )
               b(3) = (  0.000000  0.000000  1.039814 )

     PseudoPot. # 1 for Al read from file:
     ./../../../pseudos/Al.pbe-n-kjpaw_psl.1.0.0.UPF
     MD5 check sum: 502b6b27b9c6270cab5dd1084b96fa6d
     Pseudo is Projector augmented-wave + core cor, Zval =  3.0
     Generated using &quot;atomic&quot; code by A. Dal Corso  v.6.3
     Shape of augmentation charge: PSQ
     Using radial grid of 1135 points,  6 beta functions with:
                l(1) =   0
                l(2) =   0
                l(3) =   1
                l(4) =   1
                l(5) =   2
                l(6) =   2
     Q(r) pseudized with 0 coefficients

     PseudoPot. # 2 for Fe read from file:
     ./../../../pseudos/Fe.pbe-spn-kjpaw_psl.1.0.0.UPF
     MD5 check sum: fc81f059e5c5069939230b1155715ae8
     Pseudo is Projector augmented-wave + core cor, Zval = 16.0
     Generated using &quot;atomic&quot; code by A. Dal Corso  v.6.3
     Shape of augmentation charge: PSQ
     Using radial grid of 1191 points,  6 beta functions with:
                l(1) =   0
                l(2) =   0
                l(3) =   1
                l(4) =   1
                l(5) =   2
                l(6) =   2
     Q(r) pseudized with 0 coefficients

     PseudoPot. # 3 for Fe read from file:
     ./../../../pseudos/Fe.pbe-spn-kjpaw_psl.1.0.0.UPF
     MD5 check sum: fc81f059e5c5069939230b1155715ae8
     Pseudo is Projector augmented-wave + core cor, Zval = 16.0
     Generated using &quot;atomic&quot; code by A. Dal Corso  v.6.3
     Shape of augmentation charge: PSQ
     Using radial grid of 1191 points,  6 beta functions with:
                l(1) =   0
                l(2) =   0
                l(3) =   1
                l(4) =   1
                l(5) =   2
                l(6) =   2
     Q(r) pseudized with 0 coefficients

     PseudoPot. # 4 for H  read from file:
     ./../../../pseudos/H.pbe-kjpaw_psl.1.0.0.UPF
     MD5 check sum: d81a744832360e4a8af0b0b5b123bc2a
     Pseudo is Projector augmented-wave, Zval =  1.0
     Generated using &quot;atomic&quot; code by A. Dal Corso  v.6.3MaX
     Shape of augmentation charge: PSQ
     Using radial grid of  929 points,  2 beta functions with:
                l(1) =   0
                l(2) =   0
     Q(r) pseudized with 0 coefficients

     PseudoPot. # 5 for K  read from file:
     ./../../../pseudos/K.pbe-spn-kjpaw_psl.1.0.0.UPF
     MD5 check sum: 34cc42130a09071ebe376fd42eb21491
     Pseudo is Projector augmented-wave + core cor, Zval =  9.0
     Generated using &quot;atomic&quot; code by A. Dal Corso  v.6.2.2
     Shape of augmentation charge: PSQ
     Using radial grid of 1165 points,  6 beta functions with:
                l(1) =   0
                l(2) =   0
                l(3) =   1
                l(4) =   1
                l(5) =   2
                l(6) =   2
     Q(r) pseudized with 0 coefficients

     PseudoPot. # 6 for Mg read from file:
     ./../../../pseudos/Mg.pbe-spnl-kjpaw_psl.1.0.0.UPF
     MD5 check sum: fda14e0d92a6a9a5ebed782e5a4b3067
     Pseudo is Projector augmented-wave + core cor, Zval = 10.0
     Generated using &quot;atomic&quot; code by A. Dal Corso  v.6.3
     Shape of augmentation charge: PSQ
     Using radial grid of 1129 points,  4 beta functions with:
                l(1) =   0
                l(2) =   0
                l(3) =   1
                l(4) =   1
     Q(r) pseudized with 0 coefficients

     PseudoPot. # 7 for O  read from file:
     ./../../../pseudos/O.pbe-n-kjpaw_psl.1.0.0.UPF
     MD5 check sum: e99d9cef9b487d1ca56f5b95ecd0fd7a
     Pseudo is Projector augmented-wave + core cor, Zval =  6.0
     Generated using &quot;atomic&quot; code by A. Dal Corso  v.6.3
     Shape of augmentation charge: PSQ
     Using radial grid of 1095 points,  4 beta functions with:
                l(1) =   0
                l(2) =   0
                l(3) =   1
                l(4) =   1
     Q(r) pseudized with 0 coefficients

     PseudoPot. # 8 for Si read from file:
     ./../../../pseudos/Si.pbe-n-kjpaw_psl.1.0.0.UPF
     MD5 check sum: c39c59da582df4a0d9f10159256ea34e
     Pseudo is Projector augmented-wave + core cor, Zval =  4.0
     Generated using &quot;atomic&quot; code by A. Dal Corso  v.6.3
     Shape of augmentation charge: PSQ
     Using radial grid of 1141 points,  6 beta functions with:
                l(1) =   0
                l(2) =   0
                l(3) =   1
                l(4) =   1
                l(5) =   2
                l(6) =   2
     Q(r) pseudized with 0 coefficients

     atomic species   valence    mass     pseudopotential
     Al                3.00    26.98154     Al( 1.00)
     Fe1              16.00    55.84500     Fe( 1.00)
     Fe2              16.00    55.84500     Fe( 1.00)
     H                 1.00     1.00794     H ( 1.00)
     K                 9.00    39.09830     K ( 1.00)
     Mg               10.00    24.30500     Mg( 1.00)
     O                 6.00    15.99940     O ( 1.00)
     Si                4.00    28.08550     Si( 1.00)

     Starting magnetic structure
     atomic species   magnetization
     Al              0.000
     Fe1             0.300
     Fe2             0.300
     H               0.000
     K               0.000
     Mg              0.000
     O               0.000
     Si              0.000

      2 Sym. Ops. (no inversion) found

                                    s                        frac. trans.

      isym =  1     identity

 cryst.   s( 1) = (     1          0          0      )
                  (     0          1          0      )
                  (     0          0          1      )

 cart.    s( 1) = (  1.0000000  0.0000000  0.0000000 )
                  (  0.0000000  1.0000000  0.0000000 )
                  (  0.0000000  0.0000000  1.0000000 )

      isym =  2     180 deg rotation - cart. axis [0,1,0]

 cryst.   s( 2) = (    -1          0          0      )
                  (     0          1          0      )
                  (     0          0         -1      )

 cart.    s( 2) = ( -1.0000000  0.0000000  0.0000000 )
                  (  0.0000000  1.0000000  0.0000000 )
                  (  0.0000000  0.0000000 -1.0000000 )

     point group C_2  (2)
     there are  2 classes
     the character table:

       E     C2
A      1.00  1.00
B      1.00 -1.00

     the symmetry operations in each class and the name of the first element:

     E        1
          identity
     C2       2
          180 deg rotation - cart. axis [0,1,0]

   Cartesian axes

     site n.     atom                  positions (alat units)
         1        K      tau(   1) = (   0.0000000   0.4296389   0.0000000  )
         2        K      tau(   2) = (   0.5000000   0.4296389   0.0000000  )
         3        K      tau(   3) = (   0.2500001   0.0024501   0.0000000  )
         4        K      tau(   4) = (   0.7500001   0.0024501   0.0000000  )
         5        Mg     tau(   5) = (  -0.0870414   0.0055279   0.4808550  )
         6        Mg     tau(   6) = (   0.4129586   0.0055279   0.4808550  )
         7        Mg     tau(   7) = (  -0.0870414   0.5801280   0.4808550  )
         8        Mg     tau(   8) = (   0.4129586   0.5801280   0.4808550  )
         9        Mg     tau(   9) = (   0.1629587   0.4310949   0.4808550  )
        10        Mg     tau(  10) = (   0.6629587   0.4310949   0.4808550  )
        11        Mg     tau(  11) = (   0.1629587   0.7269300   0.4808550  )
        12        Mg     tau(  12) = (   0.6629587   0.7269300   0.4808550  )
        13        Mg     tau(  13) = (   0.1629587   0.1482588   0.4808550  )
        14        Mg     tau(  14) = (   0.6629587   0.1482588   0.4808550  )
        15        Si     tau(  15) = (   0.0074326   0.1420119   0.2164892  )
        16        Si     tau(  16) = (   0.5074326   0.1420119   0.2164892  )
        17        Si     tau(  17) = (   0.3184849   0.1420119   0.7452208  )
        18        Si     tau(  18) = (   0.8184849   0.1420119   0.7452208  )
        19        Si     tau(  19) = (   0.3331608   0.7257911   0.7377580  )
        20        Si     tau(  20) = (   0.8331608   0.7257911   0.7377580  )
        21        Si     tau(  21) = (  -0.0072433   0.7257911   0.2239520  )
        22        Si     tau(  22) = (   0.4927567   0.7257911   0.2239520  )
        23        Si     tau(  23) = (   0.2427667   0.5796705   0.2225784  )
        24        Si     tau(  24) = (   0.7427667   0.5796705   0.2225784  )
        25        Si     tau(  25) = (   0.0831508   0.5796705   0.7391315  )
        26        Si     tau(  26) = (   0.5831508   0.5796705   0.7391315  )
[...]
     atom   12 type  6   force =    -0.00005471    0.00005168   -0.00007039
     atom   13 type  6   force =     0.00031029   -0.00005218    0.00000517
     atom   14 type  6   force =    -0.00031030   -0.00005218   -0.00000516
     atom   15 type  8   force =     0.00004245    0.00002083   -0.00005572
     atom   16 type  8   force =     0.00000752    0.00006010    0.00001590
     atom   17 type  8   force =    -0.00000752    0.00006010   -0.00001590
     atom   18 type  8   force =    -0.00004245    0.00002083    0.00005572
     atom   19 type  8   force =     0.00000152   -0.00001573   -0.00007888
     atom   20 type  8   force =     0.00000091   -0.00000969   -0.00005875
     atom   21 type  8   force =    -0.00000091   -0.00000969    0.00005875
     atom   22 type  8   force =    -0.00000152   -0.00001573    0.00007888
     atom   23 type  8   force =     0.00000974   -0.00005993    0.00004311
     atom   24 type  8   force =    -0.00002595   -0.00002353    0.00004720
     atom   25 type  8   force =     0.00002595   -0.00002353   -0.00004720
     atom   26 type  8   force =    -0.00000974   -0.00005993   -0.00004311
     atom   27 type  1   force =     0.00003746   -0.00000022    0.00004330
     atom   28 type  1   force =    -0.00001590    0.00000810    0.00000710
     atom   29 type  1   force =     0.00001590    0.00000810   -0.00000710
     atom   30 type  1   force =    -0.00003746   -0.00000022   -0.00004330
     atom   31 type  7   force =     0.00009285   -0.00017349    0.00012613
     atom   32 type  7   force =    -0.00010643   -0.00001968    0.00047980
     atom   33 type  7   force =     0.00010642   -0.00001968   -0.00047980
     atom   34 type  7   force =    -0.00009286   -0.00017349   -0.00012613
     atom   35 type  7   force =     0.00000640   -0.00000730   -0.00019781
     atom   36 type  7   force =    -0.00001489   -0.00003088   -0.00017179
     atom   37 type  7   force =     0.00001489   -0.00003088    0.00017179
     atom   38 type  7   force =    -0.00000641   -0.00000730    0.00019781
     atom   39 type  7   force =     0.00004761    0.00003684    0.00024949
     atom   40 type  7   force =    -0.00007184    0.00012193    0.00019665
     atom   41 type  7   force =     0.00007183    0.00012193   -0.00019665
     atom   42 type  7   force =    -0.00004761    0.00003684   -0.00024949
     atom   43 type  7   force =     0.00029871    0.00004181    0.00001824
     atom   44 type  7   force =    -0.00005783    0.00001562   -0.00019619
     atom   45 type  7   force =     0.00005782    0.00001562    0.00019619
     atom   46 type  7   force =    -0.00029871    0.00004181   -0.00001824
     atom   47 type  7   force =     0.00025291    0.00004454   -0.00020518
     atom   48 type  7   force =     0.00017562    0.00006666   -0.00024720
     atom   49 type  7   force =    -0.00017563    0.00006666    0.00024721
     atom   50 type  7   force =    -0.00025292    0.00004454    0.00020518
     atom   51 type  7   force =    -0.00001961   -0.00014518   -0.00004520
     atom   52 type  7   force =    -0.00003189   -0.00015170   -0.00002999
     atom   53 type  7   force =     0.00003189   -0.00015170    0.00002999
     atom   54 type  7   force =     0.00001961   -0.00014518    0.00004520
     atom   55 type  7   force =     0.00005104    0.00000850   -0.00002498
     atom   56 type  7   force =     0.00002491    0.00001410   -0.00000915
     atom   57 type  7   force =    -0.00002491    0.00001410    0.00000915
     atom   58 type  7   force =    -0.00005104    0.00000850    0.00002498
     atom   59 type  7   force =     0.00006111    0.00001186    0.00002300
     atom   60 type  7   force =     0.00002793    0.00002973    0.00000418
[...]
     atom   74 type  7   force =    -0.00011322    0.00019246    0.00003963
     atom   75 type  7   force =     0.00009585   -0.00004830    0.00032552
     atom   76 type  7   force =    -0.00007584   -0.00018316    0.00024900
     atom   77 type  7   force =     0.00007583   -0.00018316   -0.00024900
     atom   78 type  7   force =    -0.00009586   -0.00004830   -0.00032551
     atom   79 type  4   force =     0.00001007    0.00001942    0.00000788
     atom   80 type  4   force =    -0.00000181    0.00000517    0.00002588
     atom   81 type  4   force =     0.00000181    0.00000517   -0.00002588
     atom   82 type  4   force =    -0.00001007    0.00001942   -0.00000788
     atom   83 type  4   force =     0.00001015   -0.00000924    0.00006920
     atom   84 type  4   force =    -0.00000544   -0.00002224    0.00006561
     atom   85 type  4   force =     0.00000544   -0.00002224   -0.00006561
     atom   86 type  4   force =    -0.00001015   -0.00000924   -0.00006920
     atom   87 type  2   force =     0.00000000   -0.00001296    0.00000000
     atom   88 type  3   force =     0.00000000   -0.00010603    0.00000000

     DFT-D3 dispersion contribution to forces:
     atom    1 type  5   force =     0.00000001    0.00103743   -0.00000000
     atom    2 type  5   force =     0.00000001    0.00103743   -0.00000000
     atom    3 type  5   force =     0.00000000   -0.00055739    0.00000000
     atom    4 type  5   force =     0.00000000   -0.00055739    0.00000000
     atom    5 type  6   force =    -0.00000001    0.00045339    0.00000000
     atom    6 type  6   force =    -0.00000000    0.00045339    0.00000000
     atom    7 type  6   force =    -0.00000001   -0.00135239   -0.00000000
     atom    8 type  6   force =    -0.00000001   -0.00135239   -0.00000000
     atom    9 type  6   force =     0.00000001   -0.00049797    0.00000000
     atom   10 type  6   force =     0.00000000   -0.00049797    0.00000000
     atom   11 type  6   force =     0.00000001    0.00118336   -0.00000000
     atom   12 type  6   force =     0.00000000    0.00118336   -0.00000000
     atom   13 type  6   force =     0.00000000   -0.00032567   -0.00000000
     atom   14 type  6   force =     0.00000000   -0.00032567   -0.00000000
     atom   15 type  8   force =    -0.00001262   -0.00006067   -0.00012150
     atom   16 type  8   force =    -0.00001262   -0.00006067   -0.00012150
     atom   17 type  8   force =     0.00001263   -0.00006067    0.00012150
     atom   18 type  8   force =     0.00001263   -0.00006067    0.00012150
     atom   19 type  8   force =     0.00004128    0.00001477    0.00024583
     atom   20 type  8   force =     0.00004128    0.00001477    0.00024583
     atom   21 type  8   force =    -0.00004127    0.00001477   -0.00024583
     atom   22 type  8   force =    -0.00004127    0.00001477   -0.00024583
     atom   23 type  8   force =     0.00002291    0.00026277   -0.00024641
     atom   24 type  8   force =     0.00002291    0.00026277   -0.00024641
     atom   25 type  8   force =    -0.00002291    0.00026277    0.00024641
     atom   26 type  8   force =    -0.00002291    0.00026277    0.00024641
     atom   27 type  1   force =    -0.00013052    0.00003095   -0.00094046
     atom   28 type  1   force =    -0.00013052    0.00003095   -0.00094046
     atom   29 type  1   force =     0.00013051    0.00003095    0.00094046
     atom   30 type  1   force =     0.00013051    0.00003095    0.00094046
     atom   31 type  7   force =    -0.00005099    0.00012419    0.00051008
     atom   32 type  7   force =    -0.00005099    0.00012419    0.00051008
     atom   33 type  7   force =     0.00005099    0.00012419   -0.00051009
     atom   34 type  7   force =     0.00005099    0.00012419   -0.00051009
     atom   35 type  7   force =     0.00000079    0.00000543   -0.00037842
     atom   36 type  7   force =     0.00000079    0.00000543   -0.00037842
     atom   37 type  7   force =    -0.00000079    0.00000543    0.00037842
     atom   38 type  7   force =    -0.00000079    0.00000543    0.00037842
     atom   39 type  7   force =    -0.00001829   -0.00000254    0.00038153
     atom   40 type  7   force =    -0.00001829   -0.00000254    0.00038153
     atom   41 type  7   force =     0.00001829   -0.00000254   -0.00038153
     atom   42 type  7   force =     0.00001829   -0.00000254   -0.00038153
     atom   43 type  7   force =    -0.00008007   -0.00000999    0.00001374
     atom   44 type  7   force =    -0.00008007   -0.00000999    0.00001374
     atom   45 type  7   force =     0.00008007   -0.00000999   -0.00001374
     atom   46 type  7   force =     0.00008007   -0.00000999   -0.00001374
     atom   47 type  7   force =    -0.00019396    0.00107693    0.00023370
     atom   48 type  7   force =    -0.00019396    0.00107693    0.00023370
     atom   49 type  7   force =     0.00019396    0.00107693   -0.00023370
     atom   50 type  7   force =     0.00019396    0.00107693   -0.00023370
     atom   51 type  7   force =     0.00080633    0.00006563    0.00021869
     atom   52 type  7   force =     0.00080633    0.00006563    0.00021869
     atom   53 type  7   force =    -0.00080634    0.00006563   -0.00021869
     atom   54 type  7   force =    -0.00080634    0.00006563   -0.00021869
     atom   55 type  7   force =     0.00032955   -0.00047148   -0.00004403
     atom   56 type  7   force =     0.00032955   -0.00047148   -0.00004403
     atom   57 type  7   force =    -0.00032956   -0.00047149    0.00004403
     atom   58 type  7   force =    -0.00032956   -0.00047149    0.00004403
     atom   59 type  7   force =    -0.00014981    0.00024121    0.00002618
     atom   60 type  7   force =    -0.00014981    0.00024121    0.00002618
[...]
     atom   74 type  7   force =     0.00011309   -0.00017165    0.00035819
     atom   75 type  7   force =     0.00001774   -0.00000466   -0.00051613
     atom   76 type  7   force =     0.00001773   -0.00000466   -0.00051613
     atom   77 type  7   force =    -0.00001774   -0.00000466    0.00051613
     atom   78 type  7   force =    -0.00001774   -0.00000466    0.00051613
     atom   79 type  4   force =    -0.00008257    0.00018062   -0.00009818
     atom   80 type  4   force =    -0.00008257    0.00018062   -0.00009818
     atom   81 type  4   force =     0.00008257    0.00018062    0.00009819
     atom   82 type  4   force =     0.00008257    0.00018062    0.00009819
     atom   83 type  4   force =     0.00012134   -0.00049080   -0.00027168
     atom   84 type  4   force =     0.00012134   -0.00049080   -0.00027168
     atom   85 type  4   force =    -0.00012134   -0.00049080    0.00027168
     atom   86 type  4   force =    -0.00012134   -0.00049080    0.00027168
     atom   87 type  2   force =    -0.00000001    0.00065669   -0.00000000
     atom   88 type  3   force =    -0.00000001    0.00065669   -0.00000000

     Total force =     0.003680     Total SCF correction =     0.001854

     DFT-D3 dispersion Force =     0.006284
     SCF correction compared to forces is large: reduce conv_thr to get better values

     BFGS Geometry Optimization
     Energy error            =      0.0E+00 Ry
     Gradient error          =      5.4E-04 Ry/Bohr

     bfgs converged in   1 scf cycles and   0 bfgs steps
     (criteria: energy <  1.0E-04 Ry, force <  1.0E-03 Ry/Bohr)

     End of BFGS Geometry Optimization

     Final energy             =   -5262.5287776847 Ry
Begin final coordinates

ATOMIC_POSITIONS (crystal)
K                0.0000000000        0.4939508740        0.0000000000
K                0.5000000000        0.4939508740        0.0000000000
K                0.2500000600        0.0028167960        0.0000000000
K                0.7500000600        0.0028167960        0.0000000000
Mg               0.0000000000        0.0063553440        0.4999999400
Mg               0.5000000000        0.0063553440        0.4999999400
Mg               0.0000000000        0.6669664380        0.4999999400
Mg               0.5000000000        0.6669664380        0.4999999400
Mg               0.2500001490        0.4956247810        0.4999999400
Mg               0.7500001190        0.4956247810        0.4999999400
Mg               0.2500001490        0.8357430100        0.4999999400
Mg               0.7500001190        0.8357430100        0.4999999400
Mg               0.2500001490        0.1704514180        0.4999999400
Mg               0.7500001190        0.1704514180        0.4999999400
Si               0.0466201340        0.1632694150        0.2251085940
Si               0.5466201310        0.1632694150        0.2251085940
Si               0.4533801670        0.1632694150        0.7748913170
Si               0.9533801670        0.1632694150        0.7748913170
Si               0.4667052330        0.8344336750        0.7671313880
Si               0.9667052030        0.8344336750        0.7671313880
Si               0.0332950880        0.8344336750        0.2328684930
Si               0.5332950950        0.8344336750        0.2328684930
Si               0.2830564380        0.6664404270        0.2314402460
Si               0.7830564380        0.6664404270        0.2314402460
Si               0.2169438600        0.6664404270        0.7685596350
Si               0.7169438600        0.6664404270        0.7685596350
Al               0.2026478800        0.3306063410        0.7720664740
Al               0.7026478650        0.3306063410        0.7720664740
Al               0.2973524630        0.3306063410        0.2279333920
Al               0.7973524330        0.3306063410        0.2279333920
O                0.0685996640        0.1576231720        0.3840955500
O                0.5685996410        0.1576231720        0.3840955500
O                0.4314006570        0.1576231720        0.6159043910
O                0.9314006570        0.1576231720        0.6159043910
O                0.4370029870        0.8347752690        0.6089946030
O                0.9370030160        0.8347752690        0.6089946030
O                0.0629973410        0.8347752690        0.3910053070
O                0.5629973410        0.8347752690        0.3910053070
O                0.3136107030        0.6695885060        0.3903405960
O                0.8136106730        0.6695885060        0.3903405960
O                0.1863895800        0.6695885060        0.6096593140
O                0.6863895650        0.6695885060        0.6096593140
O                0.1796069590        0.3332017960        0.6015062930
O                0.6796069740        0.3332017960        0.6015062930
O                0.3203933540        0.3332017960        0.3984935280
O                0.8203933240        0.3332017960        0.3984935280
O                0.1758319590        0.2041258960        0.1691473720
O                0.6758319740        0.2041258960        0.1691473720
O                0.3241683540        0.2041258960        0.8308524490
O                0.8241683240        0.2041258960        0.8308524490
O                0.0044672450        0.9965371490        0.1695325370
O                0.5044672490        0.9965371490        0.1695325370
O                0.4955330790        0.9965371490        0.8304673430
O                0.9955331090        0.9965371490        0.8304673430
O                0.3439404370        0.7683221100        0.8259019260
O                0.8439404370        0.7683221100        0.8259019260
O                0.1560598910        0.7683221100        0.1740979700
O                0.6560598610        0.7683221100        0.1740979700
O                0.4052420850        0.7382420300        0.1731384990
O                0.9052420850        0.7382420300        0.1731384990
[...]
O                0.9315607550        0.5116246340        0.6068320870
O                0.3173050580        0.9995305540        0.3989219070
O                0.8173050880        0.9995305540        0.3989219070
O                0.1826952840        0.9995305540        0.6010779740
O                0.6826952700        0.9995305540        0.6010779740
H                0.0528041460        0.4908317920        0.3007594650
H                0.5528041720        0.4908317920        0.3007594650
H                0.4471961860        0.4908317920        0.6992404460
H                0.9471961860        0.4908317920        0.6992404460
H                0.2979427870        0.0147786260        0.3056454060
H                0.7979427580        0.0147786260        0.3056454060
H                0.2020575260        0.0147786260        0.6943544750
H                0.7020575400        0.0147786260        0.6943544750
Fe1              0.0000000000        0.3356229660        0.4999999400
Fe2              0.5000000000        0.3356229660        0.4999999400
End final coordinates

     Writing all to output data dir ./temp/phl-fe1-fe2x2.save/ :
     XML data file, charge density, pseudopotentials, collected wavefunctions

     General routines

     Parallel routines

     PAW routines

   This run was terminated on:   3:52:37   5Feb2025

   JOB DONE.