     Program PWSCF v.7.3.1 starts on 28Jan2025 at 14: 0:57

     Reading input from relax.in
Warning: card  &CELL ignored
Warning: card    CELL_DOFREE     = 'IBRAV' ignored
Warning: card  / ignored

     Current dimensions of program PWSCF are:
     Max number of different atomic species (ntypx) = 10
     Max number of k-points (npk) =  40000
     Max angular momentum in pseudopotentials (lmaxx) =  4
     file Al.pbe-n-kjpaw_psl.1.0.0.UPF: wavefunction(s)  3S 3P renormalized
     file Fe.pbe-spn-kjpaw_psl.1.0.0.UPF: wavefunction(s)  3P 3D renormalized
     file H.pbe-kjpaw_psl.1.0.0.UPF: wavefunction(s)  1S renormalized
     file K.pbe-spn-kjpaw_psl.1.0.0.UPF: wavefunction(s)  3S renormalized
     file Mg.pbe-spnl-kjpaw_psl.1.0.0.UPF: wavefunction(s)  2P renormalized
     file O.pbe-n-kjpaw_psl.1.0.0.UPF: wavefunction(s)  2S 2P renormalized
     file Si.pbe-n-kjpaw_psl.1.0.0.UPF: wavefunction(s)  3S 3P renormalized

     R & G space division:  proc/nbgrp/npool/nimage =       6
     Subspace diagonalization in iterative solution of the eigenvalue problem:
     one sub-group per band group will be used

     Using Slab Decomposition

     bravais-lattice index     =          -12
     lattice parameter (alat)  =      10.0136  a.u.
     unit-cell volume          =    3303.4414 (a.u.)^3
     number of atoms/cell      =           44
     number of atomic types    =            7
     number of electrons       =       262.00
     number of Kohn-Sham states=          157
     kinetic-energy cutoff     =      60.0000  Ry
     charge density cutoff     =     480.0000  Ry
     scf convergence threshold =      1.0E-06
     mixing beta               =       0.7000
     number of iterations used =            8  plain     mixing
     energy convergence thresh.=      1.0E-04
     force convergence thresh. =      1.0E-03
     Exchange-correlation= SLA  PW   PBX  PBC
                           (   1   4   3   4   0   0   0)
     nstep                     =           50

     celldm(1)=  10.013640  celldm(2)=   1.735306  celldm(3)=   1.926511
     celldm(4)=   0.000000  celldm(5)=  -0.177565  celldm(6)=   0.000000

     crystal axes: (cart. coord. in units of alat)
               a(1) = (   1.000000   0.000000   0.000000 )
               a(2) = (   0.000000   1.735306   0.000000 )
               a(3) = (  -0.342081   0.000000   1.895896 )

     reciprocal axes: (cart. coord. in units 2 pi/alat)
               b(1) = (  1.000000 -0.000000  0.180432 )
               b(2) = (  0.000000  0.576267 -0.000000 )
               b(3) = (  0.000000  0.000000  0.527455 )

     PseudoPot. # 1 for Al read from file:
     ./../../../pseudos/Al.pbe-n-kjpaw_psl.1.0.0.UPF
     MD5 check sum: 502b6b27b9c6270cab5dd1084b96fa6d
     Pseudo is Projector augmented-wave + core cor, Zval =  3.0
     Generated using &quot;atomic&quot; code by A. Dal Corso  v.6.3
     Shape of augmentation charge: PSQ
     Using radial grid of 1135 points,  6 beta functions with:
                l(1) =   0
                l(2) =   0
                l(3) =   1
                l(4) =   1
                l(5) =   2
                l(6) =   2
     Q(r) pseudized with 0 coefficients

     PseudoPot. # 2 for Fe read from file:
     ./../../../pseudos/Fe.pbe-spn-kjpaw_psl.1.0.0.UPF
     MD5 check sum: fc81f059e5c5069939230b1155715ae8
     Pseudo is Projector augmented-wave + core cor, Zval = 16.0
     Generated using &quot;atomic&quot; code by A. Dal Corso  v.6.3
     Shape of augmentation charge: PSQ
     Using radial grid of 1191 points,  6 beta functions with:
                l(1) =   0
                l(2) =   0
                l(3) =   1
                l(4) =   1
                l(5) =   2
                l(6) =   2
     Q(r) pseudized with 0 coefficients

     PseudoPot. # 3 for H  read from file:
     ./../../../pseudos/H.pbe-kjpaw_psl.1.0.0.UPF
     MD5 check sum: d81a744832360e4a8af0b0b5b123bc2a
     Pseudo is Projector augmented-wave, Zval =  1.0
     Generated using &quot;atomic&quot; code by A. Dal Corso  v.6.3MaX
     Shape of augmentation charge: PSQ
     Using radial grid of  929 points,  2 beta functions with:
                l(1) =   0
                l(2) =   0
     Q(r) pseudized with 0 coefficients

     PseudoPot. # 4 for K  read from file:
     ./../../../pseudos/K.pbe-spn-kjpaw_psl.1.0.0.UPF
     MD5 check sum: 34cc42130a09071ebe376fd42eb21491
     Pseudo is Projector augmented-wave + core cor, Zval =  9.0
     Generated using &quot;atomic&quot; code by A. Dal Corso  v.6.2.2
     Shape of augmentation charge: PSQ
     Using radial grid of 1165 points,  6 beta functions with:
                l(1) =   0
                l(2) =   0
                l(3) =   1
                l(4) =   1
                l(5) =   2
                l(6) =   2
     Q(r) pseudized with 0 coefficients

     PseudoPot. # 5 for Mg read from file:
     ./../../../pseudos/Mg.pbe-spnl-kjpaw_psl.1.0.0.UPF
     MD5 check sum: fda14e0d92a6a9a5ebed782e5a4b3067
     Pseudo is Projector augmented-wave + core cor, Zval = 10.0
     Generated using &quot;atomic&quot; code by A. Dal Corso  v.6.3
     Shape of augmentation charge: PSQ
     Using radial grid of 1129 points,  4 beta functions with:
                l(1) =   0
                l(2) =   0
                l(3) =   1
                l(4) =   1
     Q(r) pseudized with 0 coefficients

     PseudoPot. # 6 for O  read from file:
     ./../../../pseudos/O.pbe-n-kjpaw_psl.1.0.0.UPF
     MD5 check sum: e99d9cef9b487d1ca56f5b95ecd0fd7a
     Pseudo is Projector augmented-wave + core cor, Zval =  6.0
     Generated using &quot;atomic&quot; code by A. Dal Corso  v.6.3
     Shape of augmentation charge: PSQ
     Using radial grid of 1095 points,  4 beta functions with:
                l(1) =   0
                l(2) =   0
                l(3) =   1
                l(4) =   1
     Q(r) pseudized with 0 coefficients

     PseudoPot. # 7 for Si read from file:
     ./../../../pseudos/Si.pbe-n-kjpaw_psl.1.0.0.UPF
     MD5 check sum: c39c59da582df4a0d9f10159256ea34e
     Pseudo is Projector augmented-wave + core cor, Zval =  4.0
     Generated using &quot;atomic&quot; code by A. Dal Corso  v.6.3
     Shape of augmentation charge: PSQ
     Using radial grid of 1141 points,  6 beta functions with:
                l(1) =   0
                l(2) =   0
                l(3) =   1
                l(4) =   1
                l(5) =   2
                l(6) =   2
     Q(r) pseudized with 0 coefficients

     atomic species   valence    mass     pseudopotential
     Al                3.00    26.98154     Al( 1.00)
     Fe               16.00    55.84500     Fe( 1.00)
     H                 1.00     1.00794     H ( 1.00)
     K                 9.00    39.09830     K ( 1.00)
     Mg               10.00    24.30500     Mg( 1.00)
     O                 6.00    15.99940     O ( 1.00)
     Si                4.00    28.08550     Si( 1.00)

      2 Sym. Ops. (no inversion) found

                                    s                        frac. trans.

      isym =  1     identity

 cryst.   s( 1) = (     1          0          0      )
                  (     0          1          0      )
                  (     0          0          1      )

 cart.    s( 1) = (  1.0000000  0.0000000 -0.0000000 )
                  (  0.0000000  1.0000000  0.0000000 )
                  (  0.0000000  0.0000000  1.0000000 )

      isym =  2     180 deg rotation - cart. axis [0,1,0]

 cryst.   s( 2) = (    -1          0          0      )
                  (     0          1          0      )
                  (     0          0         -1      )

 cart.    s( 2) = ( -1.0000000  0.0000000  0.0000000 )
                  (  0.0000000  1.0000000  0.0000000 )
                  (  0.0000000  0.0000000 -1.0000000 )

     point group C_2  (2)
     there are  2 classes
     the character table:

       E     C2
A      1.00  1.00
B      1.00 -1.00

     the symmetry operations in each class and the name of the first element:

     E        1
          identity
     C2       2
          180 deg rotation - cart. axis [0,1,0]

   Cartesian axes

     site n.     atom                  positions (alat units)
         1        K      tau(   1) = (   0.0000000   0.8559224   0.0000000  )
         2        K      tau(   2) = (   0.5000000   0.0093568   0.0000000  )
         3        Mg     tau(   3) = (  -0.1710407   0.0067712   0.9479482  )
         4        Mg     tau(   4) = (  -0.1710407   1.1543881   0.9479482  )
         5        Mg     tau(   5) = (   0.3289593   0.8562226   0.9479482  )
         6        Mg     tau(   6) = (   0.3289593   1.4480089   0.9479482  )
         7        Mg     tau(   7) = (   0.3289593   0.2986375   0.9479482  )
         8        Si     tau(   8) = (   0.0066674   0.2865251   0.4219393  )
         9        Si     tau(   9) = (   0.6512512   0.2865251   1.4739571  )
        10        Si     tau(  10) = (   0.6701371   1.4476688   1.4628623  )
        11        Si     tau(  11) = (  -0.0122184   1.4476688   0.4330341  )
        12        Si     tau(  12) = (   0.4872056   1.1568454   0.4292651  )
        13        Si     tau(  13) = (   0.1707131   1.1568454   1.4666313  )
        14        Al     tau(  14) = (   0.1506005   0.5746762   1.4713786  )
        15        Al     tau(  15) = (   0.5073182   0.5746762   0.4245178  )
        16        O      tau(  16) = (  -0.0043508   0.2833738   0.7297400  )
        17        O      tau(  17) = (   0.6622695   0.2833738   1.1661564  )
        18        O      tau(  18) = (   0.6658139   1.4451231   1.1576912  )
        19        O      tau(  19) = (  -0.0078952   1.4451231   0.7382052  )
        20        O      tau(  20) = (   0.4926234   1.1618863   0.7357690  )
        21        O      tau(  21) = (   0.1652953   1.1618863   1.1601274  )
        22        O      tau(  22) = (   0.1548298   0.5779784   1.1454267  )
        23        O      tau(  23) = (   0.5030889   0.5779784   0.7504697  )
        24        O      tau(  24) = (   0.2847398   0.3548857   0.3143567  )
        25        O      tau(  25) = (   0.3731789   0.3548857   1.5815397  )
        26        O      tau(  26) = (   0.9404978   1.7303189   0.3181314  )
        27        O      tau(  27) = (  -0.2825791   1.7303189   1.5777650  )
        28        O      tau(  28) = (   0.3988927   1.3439356   1.5754330  )
        29        O      tau(  29) = (   0.2590260   1.3439356   0.3204634  )
        30        O      tau(  30) = (   0.7582660   1.2710892   0.3185125  )
        31        O      tau(  31) = (  -0.1003473   1.2710892   1.5773839  )
        32        O      tau(  32) = (   0.4432368   0.8811364   0.3085875  )
        33        O      tau(  33) = (   0.2146819   0.8811364   1.5873090  )
        34        O      tau(  34) = (  -0.1423236   0.4782556   1.5925436  )
        35        O      tau(  35) = (   0.8002423   0.4782556   0.3033529  )
        36        O      tau(  36) = (  -0.0041068   0.8750247   0.7469263  )
        37        O      tau(  37) = (   0.6620255   0.8750247   1.1489701  )
        38        O      tau(  38) = (   0.4966158   1.7335917   0.7534577  )
[...]
     atom    2 type  4   force =     0.00000000    0.00000000    0.00000000
     atom    3 type  5   force =     0.00000000    0.00000000    0.00000000
     atom    4 type  5   force =     0.00000000    0.00000000    0.00000000
     atom    5 type  5   force =     0.00000000    0.00000000    0.00000000
     atom    6 type  5   force =     0.00000000    0.00000000    0.00000000
     atom    7 type  5   force =     0.00000000    0.00000000    0.00000000
     atom    8 type  7   force =     0.00000000    0.00000000    0.00000000
     atom    9 type  7   force =     0.00000000    0.00000000    0.00000000
     atom   10 type  7   force =     0.00000000    0.00000000    0.00000000
     atom   11 type  7   force =     0.00000000    0.00000000    0.00000000
     atom   12 type  7   force =     0.00000000    0.00000000    0.00000000
     atom   13 type  7   force =     0.00000000    0.00000000    0.00000000
     atom   14 type  1   force =     0.00000000    0.00000000    0.00000000
     atom   15 type  1   force =     0.00000000    0.00000000    0.00000000
     atom   16 type  6   force =     0.00000000    0.00000000    0.00000000
     atom   17 type  6   force =     0.00000000    0.00000000    0.00000000
     atom   18 type  6   force =     0.00000000    0.00000000    0.00000000
     atom   19 type  6   force =     0.00000000    0.00000000    0.00000000
     atom   20 type  6   force =     0.00000000    0.00000000    0.00000000
     atom   21 type  6   force =     0.00000000    0.00000000    0.00000000
     atom   22 type  6   force =     0.00000000    0.00000000    0.00000000
     atom   23 type  6   force =     0.00000000    0.00000000    0.00000000
     atom   24 type  6   force =     0.00000000    0.00000000    0.00000000
     atom   25 type  6   force =     0.00000000    0.00000000    0.00000000
     atom   26 type  6   force =     0.00000000    0.00000000    0.00000000
     atom   27 type  6   force =     0.00000000    0.00000000    0.00000000
     atom   28 type  6   force =     0.00000000    0.00000000    0.00000000
     atom   29 type  6   force =     0.00000000    0.00000000    0.00000000
     atom   30 type  6   force =     0.00000000    0.00000000    0.00000000
     atom   31 type  6   force =     0.00000000    0.00000000    0.00000000
     atom   32 type  6   force =     0.00000000    0.00000000    0.00000000
     atom   33 type  6   force =     0.00000000    0.00000000    0.00000000
     atom   34 type  6   force =     0.00000000    0.00000000    0.00000000
     atom   35 type  6   force =     0.00000000    0.00000000    0.00000000
     atom   36 type  6   force =     0.00000000    0.00000000    0.00000000
     atom   37 type  6   force =     0.00000000    0.00000000    0.00000000
     atom   38 type  6   force =     0.00000000    0.00000000    0.00000000
     atom   39 type  6   force =     0.00000000    0.00000000    0.00000000
     atom   40 type  3   force =     0.00000000    0.00000000    0.00000000
     atom   41 type  3   force =     0.00000000    0.00000000    0.00000000
     atom   42 type  3   force =     0.00000000    0.00000000    0.00000000
     atom   43 type  3   force =     0.00000000    0.00000000    0.00000000
     atom   44 type  2   force =     0.00000000    0.00000000    0.00000000
     The SCF correction term to forces
     atom    1 type  4   force =    -0.00000000   -0.00000185    0.00000000
     atom    2 type  4   force =    -0.00000000    0.00001176    0.00000000
     atom    3 type  5   force =     0.00000000   -0.00002128   -0.00000000
     atom    4 type  5   force =    -0.00000000   -0.00001032   -0.00000000
     atom    5 type  5   force =    -0.00000000   -0.00001107   -0.00000000
     atom    6 type  5   force =     0.00000000    0.00000262    0.00000000
     atom    7 type  5   force =    -0.00000000   -0.00000762    0.00000000
     atom    8 type  7   force =    -0.00000980    0.00000563   -0.00000223
     atom    9 type  7   force =     0.00000980    0.00000563    0.00000223
     atom   10 type  7   force =     0.00000075    0.00000395   -0.00001056
     atom   11 type  7   force =    -0.00000075    0.00000395    0.00001056
     atom   12 type  7   force =     0.00000231    0.00000192    0.00001180
     atom   13 type  7   force =    -0.00000231    0.00000192   -0.00001180
     atom   14 type  1   force =    -0.00000398   -0.00000829    0.00000108
     atom   15 type  1   force =     0.00000398   -0.00000829   -0.00000108
     atom   16 type  6   force =    -0.00001129    0.00002208    0.00001517
     atom   17 type  6   force =     0.00001129    0.00002208   -0.00001517
     atom   18 type  6   force =    -0.00001212    0.00000780   -0.00000350
     atom   19 type  6   force =     0.00001212    0.00000780    0.00000350
     atom   20 type  6   force =     0.00000533    0.00000792    0.00001940
     atom   21 type  6   force =    -0.00000533    0.00000792   -0.00001940
     atom   22 type  6   force =    -0.00000419   -0.00000622   -0.00000279
     atom   23 type  6   force =     0.00000419   -0.00000622    0.00000279
     atom   24 type  6   force =    -0.00000492    0.00001324   -0.00000964
     atom   25 type  6   force =     0.00000492    0.00001324    0.00000964
     atom   26 type  6   force =    -0.00003516    0.00000809    0.00000479
     atom   27 type  6   force =     0.00003516    0.00000809   -0.00000479
     atom   28 type  6   force =    -0.00001372    0.00002150   -0.00001912
     atom   29 type  6   force =     0.00001372    0.00002150    0.00001912
     atom   30 type  6   force =     0.00000816   -0.00001523    0.00001301
     atom   31 type  6   force =    -0.00000816   -0.00001523   -0.00001301
     atom   32 type  6   force =     0.00000149   -0.00001243    0.00000075
     atom   33 type  6   force =    -0.00000149   -0.00001243   -0.00000075
     atom   34 type  6   force =     0.00004846   -0.00006509   -0.00001129
     atom   35 type  6   force =    -0.00004846   -0.00006509    0.00001129
     atom   36 type  6   force =    -0.00000372    0.00000464    0.00000786
     atom   37 type  6   force =     0.00000372    0.00000464   -0.00000786
     atom   38 type  6   force =     0.00000174    0.00000081    0.00001632
     atom   39 type  6   force =    -0.00000174    0.00000081   -0.00001632
     atom   40 type  3   force =    -0.00000056   -0.00000118   -0.00000391
     atom   41 type  3   force =     0.00000056   -0.00000118    0.00000391
     atom   42 type  3   force =     0.00000096    0.00000050    0.00000087
     atom   43 type  3   force =    -0.00000096    0.00000050   -0.00000087
     atom   44 type  2   force =    -0.00000000   -0.00011442    0.00000000

     DFT-D3 dispersion contribution to forces:
     atom    1 type  4   force =    -0.00000000    0.00052042    0.00000000
     atom    2 type  4   force =     0.00000000   -0.00021729    0.00000000
     atom    3 type  5   force =     0.00000000    0.00065620   -0.00000000
     atom    4 type  5   force =    -0.00000000   -0.00161002   -0.00000000
     atom    5 type  5   force =     0.00000000   -0.00080867    0.00000000
     atom    6 type  5   force =    -0.00000000    0.00120042    0.00000000
     atom    7 type  5   force =     0.00000000   -0.00004216   -0.00000000
     atom    8 type  7   force =    -0.00002435   -0.00004253   -0.00015017
     atom    9 type  7   force =     0.00002435   -0.00004253    0.00015017
     atom   10 type  7   force =     0.00005672   -0.00004515    0.00024099
     atom   11 type  7   force =    -0.00005672   -0.00004515   -0.00024099
     atom   12 type  7   force =    -0.00015983    0.00012962   -0.00025758
     atom   13 type  7   force =     0.00015983    0.00012962    0.00025758
     atom   14 type  1   force =    -0.00001599    0.00003108   -0.00112834
     atom   15 type  1   force =     0.00001599    0.00003108    0.00112834
     atom   16 type  6   force =    -0.00000287   -0.00001273    0.00043238
     atom   17 type  6   force =     0.00000287   -0.00001273   -0.00043238
     atom   18 type  6   force =    -0.00001980    0.00002932   -0.00031919
     atom   19 type  6   force =     0.00001980    0.00002932    0.00031919
     atom   20 type  6   force =     0.00000605   -0.00006086    0.00035531
     atom   21 type  6   force =    -0.00000605   -0.00006086   -0.00035531
     atom   22 type  6   force =     0.00002759   -0.00003344    0.00012826
     atom   23 type  6   force =    -0.00002759   -0.00003344   -0.00012826
     atom   24 type  6   force =    -0.00019650    0.00105334    0.00010126
     atom   25 type  6   force =     0.00019650    0.00105334   -0.00010126
     atom   26 type  6   force =     0.00081489    0.00007988    0.00015889
     atom   27 type  6   force =    -0.00081489    0.00007988   -0.00015889
     atom   28 type  6   force =     0.00039960   -0.00057222   -0.00017749
     atom   29 type  6   force =    -0.00039960   -0.00057222    0.00017749
     atom   30 type  6   force =    -0.00027389    0.00040219    0.00023320
     atom   31 type  6   force =     0.00027389    0.00040219   -0.00023320
     atom   32 type  6   force =     0.00085421   -0.00045096    0.00038899
     atom   33 type  6   force =    -0.00085420   -0.00045096   -0.00038899
     atom   34 type  6   force =     0.00070206   -0.00067016   -0.00024120
     atom   35 type  6   force =    -0.00070206   -0.00067016    0.00024120
     atom   36 type  6   force =     0.00007744    0.00013202   -0.00055424
     atom   37 type  6   force =    -0.00007744    0.00013202    0.00055424
     atom   38 type  6   force =     0.00002425    0.00004728   -0.00051873
     atom   39 type  6   force =    -0.00002425    0.00004728    0.00051873
     atom   40 type  3   force =     0.00021499    0.00047624   -0.00011880
     atom   41 type  3   force =    -0.00021500    0.00047624    0.00011880
     atom   42 type  3   force =     0.00008498   -0.00052726   -0.00024044
     atom   43 type  3   force =    -0.00008498   -0.00052726    0.00024044
     atom   44 type  2   force =    -0.00000000    0.00036975   -0.00000000

     Total force =     0.003784     Total SCF correction =     0.000197

     DFT-D3 dispersion Force =     0.004621

     Computing stress (Cartesian axis) and pressure

          total   stress  (Ry/bohr**3)                   (kbar)     P=        7.39
   0.00004255   0.00000000  -0.00000905            6.26        0.00       -1.33
   0.00000000   0.00001430   0.00000000            0.00        2.10        0.00
  -0.00000905   0.00000000   0.00009388           -1.33        0.00       13.81

     kinetic stress (kbar)  20839.38      0.00     -8.25
                                0.00  20817.17      0.00
                               -8.25      0.00  20555.35

     local   stress (kbar) -39782.77      0.00    -50.96
                                0.00 -39286.50     -0.00
                              -50.96     -0.00  18132.91

     nonloc. stress (kbar)   3919.05      0.00     -4.29
                                0.00   3920.13      0.00
                               -4.29      0.00   3903.21

     hartree stress (kbar)  22630.77     -0.00     17.66
                               -0.00  22371.59      0.00
                               17.66      0.00  -5682.41

     exc-cor stress (kbar)  -2916.32     -0.00      0.22
                               -0.00  -2916.10      0.00
                                0.22      0.00  -2913.20

     corecor stress (kbar)  -1922.22      0.00      0.24
                                0.00  -1922.28     -0.00
                                0.24     -0.00  -1923.97

     ewald   stress (kbar)  -2746.01     -0.00     44.01
                               -0.00  -2966.29      0.00
                               44.01      0.00 -32046.23

     hubbard stress (kbar)      0.00      0.00      0.00
                                0.00      0.00      0.00
                                0.00      0.00      0.00

     DFT-D   stress (kbar)    -15.61     -0.00      0.04
                               -0.00    -15.61     -0.00
                                0.04     -0.00    -11.86

     XDM     stress (kbar)      0.00      0.00      0.00
                                0.00      0.00      0.00
                                0.00      0.00      0.00

     dft-nl  stress (kbar)      0.00      0.00      0.00
                                0.00      0.00      0.00
                                0.00      0.00      0.00

     TS-vdW  stress (kbar)      0.00      0.00      0.00
                                0.00      0.00      0.00
                                0.00      0.00      0.00

     MDB     stress (kbar)      0.00      0.00      0.00
                                0.00      0.00      0.00
                                0.00      0.00      0.00

     3D-RISM stress (kbar)      0.00      0.00      0.00
                                0.00      0.00      0.00
                                0.00      0.00      0.00

     Energy error            =      2.5E-05 Ry
     Gradient error          =      9.5E-04 Ry/Bohr

     bfgs converged in  21 scf cycles and  20 bfgs steps
     (criteria: energy <  1.0E-04 Ry, force <  1.0E-03 Ry/Bohr)

     End of BFGS Geometry Optimization

     Final energy             =   -2631.1990897070 Ry

     File ./temp/phl-fe1-fe2-nspin.bfgs deleted, as requested
Begin final coordinates

ATOMIC_POSITIONS (crystal)
K                0.0000000000        0.4995668133        0.0000000000
K                0.5000000000        0.0029696103        0.0000000000
Mg              -0.0000000000        0.0085811607        0.5000000000
Mg              -0.0000000000        0.6612991224        0.5000000000
Mg               0.5000000000        0.4906496046        0.5000000000
Mg               0.5000000000        0.8351125988        0.5000000000
Mg               0.5000000000        0.1746155727        0.5000000000
Si               0.0858055325        0.1680554597        0.2230909834
Si               0.9141944535        0.1680554597        0.7769090466
Si               0.9356479598        0.8356767815        0.7702792481
Si               0.0643520402        0.8356767815        0.2297207519
Si               0.5627674947        0.6671911101        0.2268440369
Si               0.4372325053        0.6671911101        0.7731559481
Al               0.4113448310        0.3325093211        0.7762147287
Al               0.5886551690        0.3325093211        0.2237852713
O                0.1273520876        0.1678661093        0.3859101610
O                0.8726478824        0.1678661093        0.6140898680
O                0.8753460656        0.8324761120        0.6093440283
O                0.1246539344        0.8324761120        0.3906559717
O                0.6238429546        0.6676063853        0.3887940214
O                0.3761570454        0.6676063853        0.6112059786
O                0.3598868482        0.3332582205        0.6039331568
O                0.6401131518        0.3332582205        0.3960668432
O                0.3474016824        0.2028759438        0.1661104902
O                0.6525983176        0.2028759438        0.8338894798
O                0.9970684847        0.9996439847        0.1696801364
O                0.0029315153        0.9996439847        0.8303198486
O                0.6853638436        0.7754280757        0.8307075856
O                0.3146361564        0.7754280757        0.1692924144
O                0.8128592874        0.7348827080        0.1680969973
O                0.1871407126        0.7348827080        0.8319030027
O                0.4974457777        0.5087573693        0.1609623810
O                0.5025541923        0.5087573693        0.8390376340
O                0.1378375204        0.2808651158        0.8418806749
O                0.8621624946        0.2808651158        0.1581193251
O                0.1258243228        0.4960973192        0.3955149928
O                0.8741756922        0.4960973192        0.6044850072
O                0.6317876115        1.0002528523        0.3973777517
O                0.3682123885        1.0002528523        0.6026222183
H                0.0842445951        0.4759011307        0.3010321429
H                0.9157554349        0.4759011307        0.6989678571
H                0.5951499646        0.0176905566        0.3025385910
H                0.4048500354        0.0176905566        0.6974614090
Fe              -0.0000000000        0.3331314587        0.5000000000
End final coordinates

     Writing all to output data dir ./temp/phl-fe1-fe2-nspin.save/ :
     XML data file, charge density, pseudopotentials, collected wavefunctions

     General routines

     Parallel routines

     PAW routines

   This run was terminated on:   2:19: 5  29Jan2025

   JOB DONE.