     Program PWSCF v.7.3.1 starts on  7Jan2025 at 15:49:56

     Reading input from relax.in
Warning: card  &CELL ignored
Warning: card    CELL_DOFREE     = 'IBRAV' ignored
Warning: card  / ignored

     Current dimensions of program PWSCF are:
     Max number of different atomic species (ntypx) = 10
     Max number of k-points (npk) =  40000
     Max angular momentum in pseudopotentials (lmaxx) =  4
     file Al.pbe-n-kjpaw_psl.1.0.0.UPF: wavefunction(s)  3S 3P renormalized
     file Fe.pbe-spn-kjpaw_psl.1.0.0.UPF: wavefunction(s)  3P 3D renormalized
     file H.pbe-kjpaw_psl.1.0.0.UPF: wavefunction(s)  1S renormalized
     file K.pbe-spn-kjpaw_psl.1.0.0.UPF: wavefunction(s)  3S renormalized
     file Mg.pbe-spnl-kjpaw_psl.1.0.0.UPF: wavefunction(s)  2P renormalized
     file O.pbe-n-kjpaw_psl.1.0.0.UPF: wavefunction(s)  2S 2P renormalized
     file Si.pbe-n-kjpaw_psl.1.0.0.UPF: wavefunction(s)  3S 3P renormalized

     R & G space division:  proc/nbgrp/npool/nimage =       4
     Subspace diagonalization in iterative solution of the eigenvalue problem:
     one sub-group per band group will be used

     Using Slab Decomposition

     bravais-lattice index     =          -12
     lattice parameter (alat)  =      10.0136  a.u.
     unit-cell volume          =    3303.4414 (a.u.)^3
     number of atoms/cell      =           44
     number of atomic types    =            7
     number of electrons       =       262.00
     number of Kohn-Sham states=          157
     kinetic-energy cutoff     =      60.0000  Ry
     charge density cutoff     =     480.0000  Ry
     scf convergence threshold =      1.0E-06
     mixing beta               =       0.7000
     number of iterations used =            8  plain     mixing
     energy convergence thresh.=      1.0E-04
     force convergence thresh. =      1.0E-03
     Exchange-correlation= SLA  PW   PBX  PBC
                           (   1   4   3   4   0   0   0)
     nstep                     =           50

     celldm(1)=  10.013640  celldm(2)=   1.735306  celldm(3)=   1.926511
     celldm(4)=   0.000000  celldm(5)=  -0.177565  celldm(6)=   0.000000

     crystal axes: (cart. coord. in units of alat)
               a(1) = (   1.000000   0.000000   0.000000 )
               a(2) = (   0.000000   1.735306   0.000000 )
               a(3) = (  -0.342081   0.000000   1.895896 )

     reciprocal axes: (cart. coord. in units 2 pi/alat)
               b(1) = (  1.000000 -0.000000  0.180432 )
               b(2) = (  0.000000  0.576267 -0.000000 )
               b(3) = (  0.000000  0.000000  0.527455 )

     PseudoPot. # 1 for Al read from file:
     ./../../../pseudos/Al.pbe-n-kjpaw_psl.1.0.0.UPF
     MD5 check sum: 502b6b27b9c6270cab5dd1084b96fa6d
     Pseudo is Projector augmented-wave + core cor, Zval =  3.0
     Generated using &quot;atomic&quot; code by A. Dal Corso  v.6.3
     Shape of augmentation charge: PSQ
     Using radial grid of 1135 points,  6 beta functions with:
                l(1) =   0
                l(2) =   0
                l(3) =   1
                l(4) =   1
                l(5) =   2
                l(6) =   2
     Q(r) pseudized with 0 coefficients

     PseudoPot. # 2 for Fe read from file:
     ./../../../pseudos/Fe.pbe-spn-kjpaw_psl.1.0.0.UPF
     MD5 check sum: fc81f059e5c5069939230b1155715ae8
     Pseudo is Projector augmented-wave + core cor, Zval = 16.0
     Generated using &quot;atomic&quot; code by A. Dal Corso  v.6.3
     Shape of augmentation charge: PSQ
     Using radial grid of 1191 points,  6 beta functions with:
                l(1) =   0
                l(2) =   0
                l(3) =   1
                l(4) =   1
                l(5) =   2
                l(6) =   2
     Q(r) pseudized with 0 coefficients

     PseudoPot. # 3 for H  read from file:
     ./../../../pseudos/H.pbe-kjpaw_psl.1.0.0.UPF
     MD5 check sum: d81a744832360e4a8af0b0b5b123bc2a
     Pseudo is Projector augmented-wave, Zval =  1.0
     Generated using &quot;atomic&quot; code by A. Dal Corso  v.6.3MaX
     Shape of augmentation charge: PSQ
     Using radial grid of  929 points,  2 beta functions with:
                l(1) =   0
                l(2) =   0
     Q(r) pseudized with 0 coefficients

     PseudoPot. # 4 for K  read from file:
     ./../../../pseudos/K.pbe-spn-kjpaw_psl.1.0.0.UPF
     MD5 check sum: 34cc42130a09071ebe376fd42eb21491
     Pseudo is Projector augmented-wave + core cor, Zval =  9.0
     Generated using &quot;atomic&quot; code by A. Dal Corso  v.6.2.2
     Shape of augmentation charge: PSQ
     Using radial grid of 1165 points,  6 beta functions with:
                l(1) =   0
                l(2) =   0
                l(3) =   1
                l(4) =   1
                l(5) =   2
                l(6) =   2
     Q(r) pseudized with 0 coefficients

     PseudoPot. # 5 for Mg read from file:
     ./../../../pseudos/Mg.pbe-spnl-kjpaw_psl.1.0.0.UPF
     MD5 check sum: fda14e0d92a6a9a5ebed782e5a4b3067
     Pseudo is Projector augmented-wave + core cor, Zval = 10.0
     Generated using &quot;atomic&quot; code by A. Dal Corso  v.6.3
     Shape of augmentation charge: PSQ
     Using radial grid of 1129 points,  4 beta functions with:
                l(1) =   0
                l(2) =   0
                l(3) =   1
                l(4) =   1
     Q(r) pseudized with 0 coefficients

     PseudoPot. # 6 for O  read from file:
     ./../../../pseudos/O.pbe-n-kjpaw_psl.1.0.0.UPF
     MD5 check sum: e99d9cef9b487d1ca56f5b95ecd0fd7a
     Pseudo is Projector augmented-wave + core cor, Zval =  6.0
     Generated using &quot;atomic&quot; code by A. Dal Corso  v.6.3
     Shape of augmentation charge: PSQ
     Using radial grid of 1095 points,  4 beta functions with:
                l(1) =   0
                l(2) =   0
                l(3) =   1
                l(4) =   1
     Q(r) pseudized with 0 coefficients

     PseudoPot. # 7 for Si read from file:
     ./../../../pseudos/Si.pbe-n-kjpaw_psl.1.0.0.UPF
     MD5 check sum: c39c59da582df4a0d9f10159256ea34e
     Pseudo is Projector augmented-wave + core cor, Zval =  4.0
     Generated using &quot;atomic&quot; code by A. Dal Corso  v.6.3
     Shape of augmentation charge: PSQ
     Using radial grid of 1141 points,  6 beta functions with:
                l(1) =   0
                l(2) =   0
                l(3) =   1
                l(4) =   1
                l(5) =   2
                l(6) =   2
     Q(r) pseudized with 0 coefficients

     atomic species   valence    mass     pseudopotential
     Al                3.00    26.98154     Al( 1.00)
     Fe               16.00    55.84500     Fe( 1.00)
     H                 1.00     1.00794     H ( 1.00)
     K                 9.00    39.09830     K ( 1.00)
     Mg               10.00    24.30500     Mg( 1.00)
     O                 6.00    15.99940     O ( 1.00)
     Si                4.00    28.08550     Si( 1.00)

     Starting magnetic structure
     atomic species   magnetization
     Al              0.000
     Fe              0.300
     H               0.000
     K               0.000
     Mg              0.000
     O               0.000
     Si              0.000

      2 Sym. Ops. (no inversion) found

                                    s                        frac. trans.

      isym =  1     identity

 cryst.   s( 1) = (     1          0          0      )
                  (     0          1          0      )
                  (     0          0          1      )

 cart.    s( 1) = (  1.0000000  0.0000000 -0.0000000 )
                  (  0.0000000  1.0000000  0.0000000 )
                  (  0.0000000  0.0000000  1.0000000 )

      isym =  2     180 deg rotation - cart. axis [0,1,0]

 cryst.   s( 2) = (    -1          0          0      )
                  (     0          1          0      )
                  (     0          0         -1      )

 cart.    s( 2) = ( -1.0000000  0.0000000  0.0000000 )
                  (  0.0000000  1.0000000  0.0000000 )
                  (  0.0000000  0.0000000 -1.0000000 )

     point group C_2  (2)
     there are  2 classes
     the character table:

       E     C2
A      1.00  1.00
B      1.00 -1.00

     the symmetry operations in each class and the name of the first element:

     E        1
          identity
     C2       2
          180 deg rotation - cart. axis [0,1,0]

   Cartesian axes

     site n.     atom                  positions (alat units)
         1        K      tau(   1) = (   0.0000000   0.8559224   0.0000000  )
         2        K      tau(   2) = (   0.5000000   0.0093568   0.0000000  )
         3        Mg     tau(   3) = (  -0.1710407   0.5780843   0.9479482  )
         4        Mg     tau(   4) = (  -0.1710407   1.1543881   0.9479482  )
         5        Mg     tau(   5) = (   0.3289593   0.8562226   0.9479482  )
         6        Mg     tau(   6) = (   0.3289593   1.4480089   0.9479482  )
         7        Mg     tau(   7) = (   0.3289593   0.2986375   0.9479482  )
         8        Si     tau(   8) = (   0.0066674   0.2865251   0.4219393  )
         9        Si     tau(   9) = (   0.6512512   0.2865251   1.4739571  )
        10        Si     tau(  10) = (   0.6701371   1.4476688   1.4628623  )
        11        Si     tau(  11) = (  -0.0122184   1.4476688   0.4330341  )
        12        Si     tau(  12) = (   0.4872056   1.1568454   0.4292651  )
        13        Si     tau(  13) = (   0.1707131   1.1568454   1.4666313  )
        14        Al     tau(  14) = (   0.1506005   0.5746762   1.4713786  )
        15        Al     tau(  15) = (   0.5073182   0.5746762   0.4245178  )
        16        O      tau(  16) = (  -0.0043508   0.2833738   0.7297400  )
        17        O      tau(  17) = (   0.6622695   0.2833738   1.1661564  )
        18        O      tau(  18) = (   0.6658139   1.4451231   1.1576912  )
        19        O      tau(  19) = (  -0.0078952   1.4451231   0.7382052  )
        20        O      tau(  20) = (   0.4926234   1.1618863   0.7357690  )
        21        O      tau(  21) = (   0.1652953   1.1618863   1.1601274  )
        22        O      tau(  22) = (   0.1548298   0.5779784   1.1454267  )
        23        O      tau(  23) = (   0.5030889   0.5779784   0.7504697  )
        24        O      tau(  24) = (   0.2847398   0.3548857   0.3143567  )
        25        O      tau(  25) = (   0.3731789   0.3548857   1.5815397  )
        26        O      tau(  26) = (   0.9404978   1.7303189   0.3181314  )
        27        O      tau(  27) = (  -0.2825791   1.7303189   1.5777650  )
        28        O      tau(  28) = (   0.3988927   1.3439356   1.5754330  )
        29        O      tau(  29) = (   0.2590260   1.3439356   0.3204634  )
        30        O      tau(  30) = (   0.7582660   1.2710892   0.3185125  )
        31        O      tau(  31) = (  -0.1003473   1.2710892   1.5773839  )
        32        O      tau(  32) = (   0.4432368   0.8811364   0.3085875  )
        33        O      tau(  33) = (   0.2146819   0.8811364   1.5873090  )
        34        O      tau(  34) = (  -0.1423236   0.4782556   1.5925436  )
        35        O      tau(  35) = (   0.8002423   0.4782556   0.3033529  )
[...]
     atom    2 type  4   force =     0.00000000    0.00000000    0.00000000
     atom    3 type  5   force =     0.00000000    0.00000000    0.00000000
     atom    4 type  5   force =     0.00000000    0.00000000    0.00000000
     atom    5 type  5   force =     0.00000000    0.00000000    0.00000000
     atom    6 type  5   force =     0.00000000    0.00000000    0.00000000
     atom    7 type  5   force =     0.00000000    0.00000000    0.00000000
     atom    8 type  7   force =     0.00000000    0.00000000    0.00000000
     atom    9 type  7   force =     0.00000000    0.00000000    0.00000000
     atom   10 type  7   force =     0.00000000    0.00000000    0.00000000
     atom   11 type  7   force =     0.00000000    0.00000000    0.00000000
     atom   12 type  7   force =     0.00000000    0.00000000    0.00000000
     atom   13 type  7   force =     0.00000000    0.00000000    0.00000000
     atom   14 type  1   force =     0.00000000    0.00000000    0.00000000
     atom   15 type  1   force =     0.00000000    0.00000000    0.00000000
     atom   16 type  6   force =     0.00000000    0.00000000    0.00000000
     atom   17 type  6   force =     0.00000000    0.00000000    0.00000000
     atom   18 type  6   force =     0.00000000    0.00000000    0.00000000
     atom   19 type  6   force =     0.00000000    0.00000000    0.00000000
     atom   20 type  6   force =     0.00000000    0.00000000    0.00000000
     atom   21 type  6   force =     0.00000000    0.00000000    0.00000000
     atom   22 type  6   force =     0.00000000    0.00000000    0.00000000
     atom   23 type  6   force =     0.00000000    0.00000000    0.00000000
     atom   24 type  6   force =     0.00000000    0.00000000    0.00000000
     atom   25 type  6   force =     0.00000000    0.00000000    0.00000000
     atom   26 type  6   force =     0.00000000    0.00000000    0.00000000
     atom   27 type  6   force =     0.00000000    0.00000000    0.00000000
     atom   28 type  6   force =     0.00000000    0.00000000    0.00000000
     atom   29 type  6   force =     0.00000000    0.00000000    0.00000000
     atom   30 type  6   force =     0.00000000    0.00000000    0.00000000
     atom   31 type  6   force =     0.00000000    0.00000000    0.00000000
     atom   32 type  6   force =     0.00000000    0.00000000    0.00000000
     atom   33 type  6   force =     0.00000000    0.00000000    0.00000000
     atom   34 type  6   force =     0.00000000    0.00000000    0.00000000
     atom   35 type  6   force =     0.00000000    0.00000000    0.00000000
     atom   36 type  6   force =     0.00000000    0.00000000    0.00000000
     atom   37 type  6   force =     0.00000000    0.00000000    0.00000000
     atom   38 type  6   force =     0.00000000    0.00000000    0.00000000
     atom   39 type  6   force =     0.00000000    0.00000000    0.00000000
     atom   40 type  3   force =     0.00000000    0.00000000    0.00000000
     atom   41 type  3   force =     0.00000000    0.00000000    0.00000000
     atom   42 type  3   force =     0.00000000    0.00000000    0.00000000
     atom   43 type  3   force =     0.00000000    0.00000000    0.00000000
     atom   44 type  2   force =     0.00000000    0.00000000    0.00000000
     The SCF correction term to forces
     atom    1 type  4   force =     0.00000000    0.00000126    0.00000000
     atom    2 type  4   force =     0.00000000   -0.00000289    0.00000000
     atom    3 type  5   force =     0.00000000   -0.00000459   -0.00000000
     atom    4 type  5   force =     0.00000000   -0.00002293   -0.00000000
     atom    5 type  5   force =    -0.00000000    0.00000717   -0.00000000
     atom    6 type  5   force =    -0.00000000    0.00003470   -0.00000000
     atom    7 type  5   force =    -0.00000000   -0.00001456   -0.00000000
     atom    8 type  7   force =    -0.00000283    0.00000461    0.00001526
     atom    9 type  7   force =     0.00000283    0.00000461   -0.00001526
     atom   10 type  7   force =    -0.00000205   -0.00000403   -0.00000767
     atom   11 type  7   force =     0.00000205   -0.00000403    0.00000767
     atom   12 type  7   force =    -0.00000015    0.00000073    0.00000307
     atom   13 type  7   force =     0.00000015    0.00000073   -0.00000307
     atom   14 type  1   force =    -0.00000242    0.00000045   -0.00000447
     atom   15 type  1   force =     0.00000242    0.00000045    0.00000447
     atom   16 type  6   force =     0.00000285    0.00000540    0.00001522
     atom   17 type  6   force =    -0.00000285    0.00000540   -0.00001522
     atom   18 type  6   force =    -0.00000666    0.00000062   -0.00000210
     atom   19 type  6   force =     0.00000666    0.00000062    0.00000210
     atom   20 type  6   force =    -0.00000041    0.00000074    0.00000406
     atom   21 type  6   force =     0.00000041    0.00000074   -0.00000406
     atom   22 type  6   force =    -0.00000351   -0.00000906   -0.00000696
     atom   23 type  6   force =     0.00000351   -0.00000906    0.00000696
     atom   24 type  6   force =     0.00000629    0.00000214    0.00001598
     atom   25 type  6   force =    -0.00000629    0.00000214   -0.00001598
     atom   26 type  6   force =    -0.00000015   -0.00000139    0.00001635
     atom   27 type  6   force =     0.00000015   -0.00000139   -0.00001635
     atom   28 type  6   force =    -0.00000292   -0.00000128   -0.00000848
     atom   29 type  6   force =     0.00000292   -0.00000128    0.00000848
     atom   30 type  6   force =    -0.00000365   -0.00000479    0.00000754
     atom   31 type  6   force =     0.00000365   -0.00000479   -0.00000754
     atom   32 type  6   force =     0.00000407   -0.00000054    0.00000406
     atom   33 type  6   force =    -0.00000407   -0.00000054   -0.00000406
     atom   34 type  6   force =     0.00000456    0.00000625   -0.00001318
     atom   35 type  6   force =    -0.00000456    0.00000625    0.00001318
     atom   36 type  6   force =    -0.00000226   -0.00000486    0.00001197
     atom   37 type  6   force =     0.00000226   -0.00000486   -0.00001197
     atom   38 type  6   force =    -0.00000142    0.00000833    0.00002138
     atom   39 type  6   force =     0.00000142    0.00000833   -0.00002138
     atom   40 type  3   force =    -0.00000027   -0.00000060    0.00000098
     atom   41 type  3   force =     0.00000027   -0.00000060   -0.00000098
     atom   42 type  3   force =     0.00000018    0.00000035    0.00000509
     atom   43 type  3   force =    -0.00000018    0.00000035   -0.00000509
     atom   44 type  2   force =     0.00000000    0.00003854   -0.00000000

     DFT-D3 dispersion contribution to forces:
     atom    1 type  4   force =    -0.00000000    0.00051435    0.00000000
     atom    2 type  4   force =     0.00000000   -0.00029095    0.00000000
     atom    3 type  5   force =     0.00000000    0.00064261   -0.00000000
     atom    4 type  5   force =    -0.00000000   -0.00105940   -0.00000000
     atom    5 type  5   force =     0.00000000   -0.00057080    0.00000000
     atom    6 type  5   force =    -0.00000000    0.00108189    0.00000000
     atom    7 type  5   force =     0.00000000   -0.00014056   -0.00000000
     atom    8 type  7   force =    -0.00000705   -0.00013511   -0.00019786
     atom    9 type  7   force =     0.00000705   -0.00013511    0.00019786
     atom   10 type  7   force =     0.00010988    0.00015934    0.00013419
     atom   11 type  7   force =    -0.00010988    0.00015934   -0.00013419
     atom   12 type  7   force =    -0.00002151    0.00004159   -0.00035246
     atom   13 type  7   force =     0.00002151    0.00004159    0.00035246
     atom   14 type  1   force =     0.00002093    0.00016540   -0.00097539
     atom   15 type  1   force =    -0.00002093    0.00016540    0.00097539
     atom   16 type  6   force =    -0.00003933   -0.00002583    0.00046094
     atom   17 type  6   force =     0.00003933   -0.00002583   -0.00046094
     atom   18 type  6   force =     0.00005768    0.00006497   -0.00040210
     atom   19 type  6   force =    -0.00005768    0.00006497    0.00040210
     atom   20 type  6   force =    -0.00002212   -0.00009544    0.00036997
     atom   21 type  6   force =     0.00002212   -0.00009544   -0.00036997
     atom   22 type  6   force =    -0.00000191    0.00002015    0.00011431
     atom   23 type  6   force =     0.00000191    0.00002015   -0.00011431
     atom   24 type  6   force =    -0.00014501    0.00096617    0.00013324
     atom   25 type  6   force =     0.00014501    0.00096617   -0.00013324
     atom   26 type  6   force =     0.00081186    0.00007291    0.00018278
     atom   27 type  6   force =    -0.00081186    0.00007291   -0.00018278
     atom   28 type  6   force =     0.00043398   -0.00066087   -0.00013777
     atom   29 type  6   force =    -0.00043398   -0.00066087    0.00013777
     atom   30 type  6   force =    -0.00027515    0.00042591    0.00018234
     atom   31 type  6   force =     0.00027515    0.00042591   -0.00018234
     atom   32 type  6   force =     0.00085517   -0.00042444    0.00039417
     atom   33 type  6   force =    -0.00085517   -0.00042444   -0.00039417
     atom   34 type  6   force =     0.00061871   -0.00047074   -0.00032765
     atom   35 type  6   force =    -0.00061871   -0.00047074    0.00032765
     atom   36 type  6   force =    -0.00001593   -0.00005406   -0.00051484
     atom   37 type  6   force =     0.00001593   -0.00005406    0.00051484
     atom   38 type  6   force =     0.00012927    0.00003586   -0.00053139
     atom   39 type  6   force =    -0.00012927    0.00003586    0.00053139
     atom   40 type  3   force =     0.00001994    0.00011166   -0.00032548
     atom   41 type  3   force =    -0.00001994    0.00011166    0.00032548
     atom   42 type  3   force =     0.00005694   -0.00042859   -0.00019702
     atom   43 type  3   force =    -0.00005694   -0.00042859    0.00019702
     atom   44 type  2   force =     0.00000000    0.00028508   -0.00000000

     Total force =     0.003733     Total SCF correction =     0.000093

     DFT-D3 dispersion Force =     0.004195

     Computing stress (Cartesian axis) and pressure

     negative rho (up, down):  0.000E+00 1.465E-04
          total   stress  (Ry/bohr**3)                   (kbar)     P=       18.97
   0.00013104   0.00000000  -0.00001490           19.28        0.00       -2.19
   0.00000000   0.00013727   0.00000000            0.00       20.19        0.00
  -0.00001490   0.00000000   0.00011851           -2.19        0.00       17.43

     kinetic stress (kbar)  20766.75      0.00    -23.59
                                0.00  20855.01      0.00
                              -23.59      0.00  20586.91

     local   stress (kbar) -38295.32      0.00    143.49
                                0.00 -37576.27      0.00
                              143.49      0.00  16402.82

     nonloc. stress (kbar)   3930.94      0.00      4.74
                                0.00   3923.10      0.00
                                4.74      0.00   3909.98

     hartree stress (kbar)  21887.66     -0.00    -69.27
                               -0.00  21562.08     -0.00
                              -69.27     -0.00  -4869.01

     exc-cor stress (kbar)  -2921.13     -0.00     -0.20
                               -0.00  -2920.95      0.00
                               -0.20      0.00  -2917.27

     corecor stress (kbar)  -1921.68      0.00      0.10
                                0.00  -1922.34     -0.00
                                0.10     -0.00  -1924.19

     ewald   stress (kbar)  -3412.41     -0.00    -57.56
                               -0.00  -3884.75     -0.00
                              -57.56     -0.00 -31159.89

     hubbard stress (kbar)      0.00      0.00      0.00
                                0.00      0.00      0.00
                                0.00      0.00      0.00

     DFT-D   stress (kbar)    -15.53     -0.00      0.10
                               -0.00    -15.67     -0.00
                                0.10     -0.00    -11.91

     XDM     stress (kbar)      0.00      0.00      0.00
                                0.00      0.00      0.00
                                0.00      0.00      0.00

     dft-nl  stress (kbar)      0.00      0.00      0.00
                                0.00      0.00      0.00
                                0.00      0.00      0.00

     TS-vdW  stress (kbar)      0.00      0.00      0.00
                                0.00      0.00      0.00
                                0.00      0.00      0.00

     MDB     stress (kbar)      0.00      0.00      0.00
                                0.00      0.00      0.00
                                0.00      0.00      0.00

     3D-RISM stress (kbar)      0.00      0.00      0.00
                                0.00      0.00      0.00
                                0.00      0.00      0.00

     Energy error            =      2.9E-05 Ry
     Gradient error          =      7.4E-04 Ry/Bohr

     bfgs converged in  14 scf cycles and  13 bfgs steps
     (criteria: energy <  1.0E-04 Ry, force <  1.0E-03 Ry/Bohr)

     End of BFGS Geometry Optimization

     Final energy             =   -2631.2400049325 Ry

     File ./temp/phl-fe1-fe1.bfgs deleted, as requested
Begin final coordinates

ATOMIC_POSITIONS (crystal)
K                0.0000000000        0.4937551473        0.0000000000
K                0.5000000000        0.0029642045        0.0000000000
Mg              -0.0000000000        0.3332085716        0.5000000000
Mg              -0.0000000000        0.6646785517        0.5000000000
Mg               0.5000000000        0.4929155607        0.5000000000
Mg               0.5000000000        0.8321100484        0.5000000000
Mg               0.5000000000        0.1748554639        0.5000000000
Si               0.0851275278        0.1660044442        0.2206798477
Si               0.9148724582        0.1660044442        0.7793201823
Si               0.9334475644        0.8334925509        0.7724660637
Si               0.0665524356        0.8334925509        0.2275339363
Si               0.5639160912        0.6664082313        0.2249287991
Si               0.4360839088        0.6664082313        0.7750711859
Al               0.4148550825        0.3312024466        0.7775600791
Al               0.5851449175        0.3312024466        0.2224399209
O                0.1329707804        0.1695668950        0.3831827411
O                0.8670291896        0.1695668950        0.6168172879
O                0.8697739339        0.8275152264        0.6116608049
O                0.1302260661        0.8275152264        0.3883391951
O                0.6251824165        0.6689401580        0.3867395115
O                0.3748175835        0.6689401580        0.6132604885
O                0.3610545563        0.3331654916        0.6052872902
O                0.6389454437        0.3331654916        0.3947127098
O                0.3442670157        0.2024344611        0.1623292645
O                0.6557329843        0.2024344611        0.8376707055
O                0.9958753033        0.9973632982        0.1686203029
O                0.0041246967        0.9973632982        0.8313796821
O                0.6825559502        0.7754561870        0.8336200551
O                0.3174440498        0.7754561870        0.1663799449
O                0.8156592593        0.7319996332        0.1662541879
O                0.1843407407        0.7319996332        0.8337458121
O                0.4955426580        0.5077924261        0.1600186838
O                0.5044573120        0.5077924261        0.8399813312
O                0.1424138916        0.2769704724        0.8430322288
O                0.8575861234        0.2769704724        0.1569677712
O                0.1313710782        0.5037167179        0.3943293677
O                0.8686289368        0.5037167179        0.6056706323
O                0.6273582467        0.9994328974        0.3977676912
O                0.3726417533        0.9994328974        0.6022322788
H                0.0999163305        0.4946147641        0.2986280259
H                0.9000836995        0.4946147641        0.7013719741
H                0.6030656360        0.0141223393        0.3024885972
H                0.3969343640        0.0141223393        0.6975114028
Fe              -0.0000000000        0.0051102235        0.5000000000
End final coordinates

     Writing all to output data dir ./temp/phl-fe1-fe1.save/ :
     XML data file, charge density, pseudopotentials, collected wavefunctions

     General routines

     Parallel routines

     PAW routines

   This run was terminated on:   8:49:56   8Jan2025

   JOB DONE.