     Program PWSCF v.7.3.1 starts on 28Dec2024 at  0:10:32

     Reading input from relax.in
Warning: card  &CELL ignored
Warning: card    CELL_DOFREE     = 'IBRAV' ignored
Warning: card  / ignored

     Current dimensions of program PWSCF are:
     Max number of different atomic species (ntypx) = 10
     Max number of k-points (npk) =  40000
     Max angular momentum in pseudopotentials (lmaxx) =  4
     file Al.pbe-n-kjpaw_psl.1.0.0.UPF: wavefunction(s)  3S 3P renormalized
     file Fe.pbe-spn-kjpaw_psl.1.0.0.UPF: wavefunction(s)  3P 3D renormalized
     file H.pbe-kjpaw_psl.1.0.0.UPF: wavefunction(s)  1S renormalized
     file K.pbe-spn-kjpaw_psl.1.0.0.UPF: wavefunction(s)  3S renormalized
     file Mg.pbe-spnl-kjpaw_psl.1.0.0.UPF: wavefunction(s)  2P renormalized
     file O.pbe-n-kjpaw_psl.1.0.0.UPF: wavefunction(s)  2S 2P renormalized
     file Si.pbe-n-kjpaw_psl.1.0.0.UPF: wavefunction(s)  3S 3P renormalized

     R & G space division:  proc/nbgrp/npool/nimage =       4
     Subspace diagonalization in iterative solution of the eigenvalue problem:
     one sub-group per band group will be used

     Using Slab Decomposition

     bravais-lattice index     =          -12
     lattice parameter (alat)  =       9.9883  a.u.
     unit-cell volume          =    3285.8057 (a.u.)^3
     number of atoms/cell      =           44
     number of atomic types    =            7
     number of electrons       =       262.00
     number of Kohn-Sham states=          157
     kinetic-energy cutoff     =      60.0000  Ry
     charge density cutoff     =     480.0000  Ry
     scf convergence threshold =      1.0E-06
     mixing beta               =       0.7000
     number of iterations used =            8  plain     mixing
     energy convergence thresh.=      1.0E-04
     force convergence thresh. =      1.0E-03
     Exchange-correlation= SLA  PW   PBX  PBC
                           (   1   4   3   4   0   0   0)
     nstep                     =           50

     celldm(1)=   9.988336  celldm(2)=   1.736567  celldm(3)=   1.928182
     celldm(4)=   0.000000  celldm(5)=  -0.174018  celldm(6)=   0.000000

     crystal axes: (cart. coord. in units of alat)
               a(1) = (   1.000000   0.000000   0.000000 )
               a(2) = (   0.000000   1.736567   0.000000 )
               a(3) = (  -0.335538   0.000000   1.898763 )

     reciprocal axes: (cart. coord. in units 2 pi/alat)
               b(1) = (  1.000000 -0.000000  0.176714 )
               b(2) = (  0.000000  0.575849 -0.000000 )
               b(3) = (  0.000000  0.000000  0.526659 )

     PseudoPot. # 1 for Al read from file:
     ./../../pseudos/Al.pbe-n-kjpaw_psl.1.0.0.UPF
     MD5 check sum: 502b6b27b9c6270cab5dd1084b96fa6d
     Pseudo is Projector augmented-wave + core cor, Zval =  3.0
     Generated using &quot;atomic&quot; code by A. Dal Corso  v.6.3
     Shape of augmentation charge: PSQ
     Using radial grid of 1135 points,  6 beta functions with:
                l(1) =   0
                l(2) =   0
                l(3) =   1
                l(4) =   1
                l(5) =   2
                l(6) =   2
     Q(r) pseudized with 0 coefficients

     PseudoPot. # 2 for Fe read from file:
     ./../../pseudos/Fe.pbe-spn-kjpaw_psl.1.0.0.UPF
     MD5 check sum: fc81f059e5c5069939230b1155715ae8
     Pseudo is Projector augmented-wave + core cor, Zval = 16.0
     Generated using &quot;atomic&quot; code by A. Dal Corso  v.6.3
     Shape of augmentation charge: PSQ
     Using radial grid of 1191 points,  6 beta functions with:
                l(1) =   0
                l(2) =   0
                l(3) =   1
                l(4) =   1
                l(5) =   2
                l(6) =   2
     Q(r) pseudized with 0 coefficients

     PseudoPot. # 3 for H  read from file:
     ./../../pseudos/H.pbe-kjpaw_psl.1.0.0.UPF
     MD5 check sum: d81a744832360e4a8af0b0b5b123bc2a
     Pseudo is Projector augmented-wave, Zval =  1.0
     Generated using &quot;atomic&quot; code by A. Dal Corso  v.6.3MaX
     Shape of augmentation charge: PSQ
     Using radial grid of  929 points,  2 beta functions with:
                l(1) =   0
                l(2) =   0
     Q(r) pseudized with 0 coefficients

     PseudoPot. # 4 for K  read from file:
     ./../../pseudos/K.pbe-spn-kjpaw_psl.1.0.0.UPF
     MD5 check sum: 34cc42130a09071ebe376fd42eb21491
     Pseudo is Projector augmented-wave + core cor, Zval =  9.0
     Generated using &quot;atomic&quot; code by A. Dal Corso  v.6.2.2
     Shape of augmentation charge: PSQ
     Using radial grid of 1165 points,  6 beta functions with:
                l(1) =   0
                l(2) =   0
                l(3) =   1
                l(4) =   1
                l(5) =   2
                l(6) =   2
     Q(r) pseudized with 0 coefficients

     PseudoPot. # 5 for Mg read from file:
     ./../../pseudos/Mg.pbe-spnl-kjpaw_psl.1.0.0.UPF
     MD5 check sum: fda14e0d92a6a9a5ebed782e5a4b3067
     Pseudo is Projector augmented-wave + core cor, Zval = 10.0
     Generated using &quot;atomic&quot; code by A. Dal Corso  v.6.3
     Shape of augmentation charge: PSQ
     Using radial grid of 1129 points,  4 beta functions with:
                l(1) =   0
                l(2) =   0
                l(3) =   1
                l(4) =   1
     Q(r) pseudized with 0 coefficients

     PseudoPot. # 6 for O  read from file:
     ./../../pseudos/O.pbe-n-kjpaw_psl.1.0.0.UPF
     MD5 check sum: e99d9cef9b487d1ca56f5b95ecd0fd7a
     Pseudo is Projector augmented-wave + core cor, Zval =  6.0
     Generated using &quot;atomic&quot; code by A. Dal Corso  v.6.3
     Shape of augmentation charge: PSQ
     Using radial grid of 1095 points,  4 beta functions with:
                l(1) =   0
                l(2) =   0
                l(3) =   1
                l(4) =   1
     Q(r) pseudized with 0 coefficients

     PseudoPot. # 7 for Si read from file:
     ./../../pseudos/Si.pbe-n-kjpaw_psl.1.0.0.UPF
     MD5 check sum: c39c59da582df4a0d9f10159256ea34e
     Pseudo is Projector augmented-wave + core cor, Zval =  4.0
     Generated using &quot;atomic&quot; code by A. Dal Corso  v.6.3
     Shape of augmentation charge: PSQ
     Using radial grid of 1141 points,  6 beta functions with:
                l(1) =   0
                l(2) =   0
                l(3) =   1
                l(4) =   1
                l(5) =   2
                l(6) =   2
     Q(r) pseudized with 0 coefficients

     atomic species   valence    mass     pseudopotential
     Al                3.00    26.98154     Al( 1.00)
     Fe               16.00    55.84500     Fe( 1.00)
     H                 1.00     1.00794     H ( 1.00)
     K                 9.00    39.09830     K ( 1.00)
     Mg               10.00    24.30500     Mg( 1.00)
     O                 6.00    15.99940     O ( 1.00)
     Si                4.00    28.08550     Si( 1.00)

      2 Sym. Ops. (no inversion) found

                                    s                        frac. trans.

      isym =  1     identity

 cryst.   s( 1) = (     1          0          0      )
                  (     0          1          0      )
                  (     0          0          1      )

 cart.    s( 1) = (  1.0000000  0.0000000  0.0000000 )
                  (  0.0000000  1.0000000  0.0000000 )
                  (  0.0000000  0.0000000  1.0000000 )

      isym =  2     180 deg rotation - cart. axis [0,1,0]

 cryst.   s( 2) = (    -1          0          0      )
                  (     0          1          0      )
                  (     0          0         -1      )

 cart.    s( 2) = ( -1.0000000  0.0000000  0.0000000 )
                  (  0.0000000  1.0000000  0.0000000 )
                  (  0.0000000  0.0000000 -1.0000000 )

     point group C_2  (2)
     there are  2 classes
     the character table:

       E     C2
A      1.00  1.00
B      1.00 -1.00

     the symmetry operations in each class and the name of the first element:

     E        1
          identity
     C2       2
          180 deg rotation - cart. axis [0,1,0]

   Cartesian axes

     site n.     atom                  positions (alat units)
         1        K      tau(   1) = (   0.0000000   0.8568223   0.0000000  )
         2        K      tau(   2) = (   0.5000000   0.0097248   0.0000000  )
         3        Mg     tau(   3) = (  -0.1677688   0.0062516   0.9493815  )
         4        Mg     tau(   4) = (  -0.1677688   0.5789715   0.9493815  )
         5        Mg     tau(   5) = (  -0.1677688   1.1532543   0.9493815  )
         6        Mg     tau(   6) = (   0.3322312   1.4489917   0.9493815  )
         7        Mg     tau(   7) = (   0.3322312   0.3011208   0.9493815  )
         8        Fe     tau(   8) = (   0.3322312   0.8644632   0.9493815  )
         9        Si     tau(   9) = (   0.0078751   0.2868809   0.4234242  )
        10        Si     tau(  10) = (   0.6565873   0.2868809   1.4753389  )
        11        Si     tau(  11) = (   0.6740999   1.4484708   1.4645160  )
        12        Si     tau(  12) = (  -0.0096375   1.4484708   0.4342471  )
        13        Si     tau(  13) = (   0.4895001   1.1563801   0.4306395  )
        14        Si     tau(  14) = (   0.1749623   1.1563801   1.4681237  )
        15        Al     tau(  15) = (   0.1565906   0.5770613   1.4724908  )
        16        Al     tau(  16) = (   0.5078718   0.5770613   0.4262723  )
        17        O      tau(  17) = (  -0.0026826   0.2835814   0.7315934  )
        18        O      tau(  18) = (   0.6671450   0.2835814   1.1671696  )
        19        O      tau(  19) = (   0.6695214   1.4455186   1.1588151  )
        20        O      tau(  20) = (  -0.0050590   1.4455186   0.7399480  )
        21        O      tau(  21) = (   0.4958430   1.1596796   0.7382391  )
        22        O      tau(  22) = (   0.1686195   1.1596796   1.1605239  )
        23        O      tau(  23) = (   0.1614037   0.5826183   1.1453339  )
        24        O      tau(  24) = (   0.5030587   0.5826183   0.7534292  )
        25        O      tau(  25) = (   0.2868665   0.3546070   0.3159542  )
        26        O      tau(  26) = (   0.3775959   0.3546070   1.5828089  )
        27        O      tau(  27) = (   0.9409297   1.7313575   0.3189922  )
        28        O      tau(  28) = (  -0.2764673   1.7313575   1.5797709  )
        29        O      tau(  29) = (   0.4011696   1.3470552   1.5767328  )
        30        O      tau(  30) = (   0.2632928   1.3470552   0.3220302  )
        31        O      tau(  31) = (   0.7619283   1.2692570   0.3201314  )
        32        O      tau(  32) = (  -0.0974659   1.2692570   1.5786317  )
        33        O      tau(  33) = (   0.4412429   0.8820025   0.3075996  )
        34        O      tau(  34) = (   0.2232195   0.8820025   1.5911635  )
        35        O      tau(  35) = (  -0.1370160   0.4799872   1.5930622  )
        36        O      tau(  36) = (   0.8014784   0.4799872   0.3057009  )
        37        O      tau(  37) = (   0.0045271   0.8729723   0.7519102  )
        38        O      tau(  38) = (   0.6599353   0.8729723   1.1468528  )
        39        O      tau(  39) = (   0.4991915   1.7355254   0.7538090  )
[...]
     atom    2 type  4   force =     0.00000000    0.00000000    0.00000000
     atom    3 type  5   force =     0.00000000    0.00000000    0.00000000
     atom    4 type  5   force =     0.00000000    0.00000000    0.00000000
     atom    5 type  5   force =     0.00000000    0.00000000    0.00000000
     atom    6 type  5   force =     0.00000000    0.00000000    0.00000000
     atom    7 type  5   force =     0.00000000    0.00000000    0.00000000
     atom    8 type  2   force =     0.00000000    0.00000000    0.00000000
     atom    9 type  7   force =     0.00000000    0.00000000    0.00000000
     atom   10 type  7   force =     0.00000000    0.00000000    0.00000000
     atom   11 type  7   force =     0.00000000    0.00000000    0.00000000
     atom   12 type  7   force =     0.00000000    0.00000000    0.00000000
     atom   13 type  7   force =     0.00000000    0.00000000    0.00000000
     atom   14 type  7   force =     0.00000000    0.00000000    0.00000000
     atom   15 type  1   force =     0.00000000    0.00000000    0.00000000
     atom   16 type  1   force =     0.00000000    0.00000000    0.00000000
     atom   17 type  6   force =     0.00000000    0.00000000    0.00000000
     atom   18 type  6   force =     0.00000000    0.00000000    0.00000000
     atom   19 type  6   force =     0.00000000    0.00000000    0.00000000
     atom   20 type  6   force =     0.00000000    0.00000000    0.00000000
     atom   21 type  6   force =     0.00000000    0.00000000    0.00000000
     atom   22 type  6   force =     0.00000000    0.00000000    0.00000000
     atom   23 type  6   force =     0.00000000    0.00000000    0.00000000
     atom   24 type  6   force =     0.00000000    0.00000000    0.00000000
     atom   25 type  6   force =     0.00000000    0.00000000    0.00000000
     atom   26 type  6   force =     0.00000000    0.00000000    0.00000000
     atom   27 type  6   force =     0.00000000    0.00000000    0.00000000
     atom   28 type  6   force =     0.00000000    0.00000000    0.00000000
     atom   29 type  6   force =     0.00000000    0.00000000    0.00000000
     atom   30 type  6   force =     0.00000000    0.00000000    0.00000000
     atom   31 type  6   force =     0.00000000    0.00000000    0.00000000
     atom   32 type  6   force =     0.00000000    0.00000000    0.00000000
     atom   33 type  6   force =     0.00000000    0.00000000    0.00000000
     atom   34 type  6   force =     0.00000000    0.00000000    0.00000000
     atom   35 type  6   force =     0.00000000    0.00000000    0.00000000
     atom   36 type  6   force =     0.00000000    0.00000000    0.00000000
     atom   37 type  6   force =     0.00000000    0.00000000    0.00000000
     atom   38 type  6   force =     0.00000000    0.00000000    0.00000000
     atom   39 type  6   force =     0.00000000    0.00000000    0.00000000
     atom   40 type  6   force =     0.00000000    0.00000000    0.00000000
     atom   41 type  3   force =     0.00000000    0.00000000    0.00000000
     atom   42 type  3   force =     0.00000000    0.00000000    0.00000000
     atom   43 type  3   force =     0.00000000    0.00000000    0.00000000
     atom   44 type  3   force =     0.00000000    0.00000000    0.00000000
     The SCF correction term to forces
     atom    1 type  4   force =     0.00000000    0.00001377    0.00000000
     atom    2 type  4   force =    -0.00000000   -0.00000604   -0.00000000
     atom    3 type  5   force =    -0.00000000   -0.00006540   -0.00000000
     atom    4 type  5   force =    -0.00000000    0.00001341   -0.00000000
     atom    5 type  5   force =    -0.00000000   -0.00003853    0.00000000
     atom    6 type  5   force =    -0.00000000    0.00007478   -0.00000000
     atom    7 type  5   force =     0.00000000   -0.00007984   -0.00000000
     atom    8 type  2   force =     0.00000000    0.00019544    0.00000000
     atom    9 type  7   force =    -0.00000203   -0.00000425    0.00000686
     atom   10 type  7   force =     0.00000203   -0.00000425   -0.00000686
     atom   11 type  7   force =    -0.00000374    0.00000251   -0.00001210
     atom   12 type  7   force =     0.00000374    0.00000251    0.00001210
     atom   13 type  7   force =     0.00000622    0.00000109    0.00002696
     atom   14 type  7   force =    -0.00000622    0.00000109   -0.00002696
     atom   15 type  1   force =    -0.00000498   -0.00000220   -0.00000152
     atom   16 type  1   force =     0.00000498   -0.00000220    0.00000152
     atom   17 type  6   force =     0.00000106   -0.00000783   -0.00002215
     atom   18 type  6   force =    -0.00000106   -0.00000783    0.00002215
     atom   19 type  6   force =     0.00000080   -0.00000145   -0.00000951
     atom   20 type  6   force =    -0.00000080   -0.00000145    0.00000951
     atom   21 type  6   force =     0.00003049   -0.00001140   -0.00000145
     atom   22 type  6   force =    -0.00003049   -0.00001140    0.00000145
     atom   23 type  6   force =    -0.00001331    0.00000400    0.00003658
     atom   24 type  6   force =     0.00001331    0.00000400   -0.00003658
     atom   25 type  6   force =     0.00000716   -0.00002824    0.00002436
     atom   26 type  6   force =    -0.00000716   -0.00002824   -0.00002436
     atom   27 type  6   force =     0.00002725    0.00000439   -0.00002238
     atom   28 type  6   force =    -0.00002725    0.00000439    0.00002238
     atom   29 type  6   force =     0.00001532    0.00003546   -0.00002659
     atom   30 type  6   force =    -0.00001532    0.00003546    0.00002659
     atom   31 type  6   force =     0.00001183    0.00001000    0.00004492
     atom   32 type  6   force =    -0.00001183    0.00001000   -0.00004492
     atom   33 type  6   force =     0.00006002   -0.00002410    0.00006826
     atom   34 type  6   force =    -0.00006002   -0.00002410   -0.00006826
     atom   35 type  6   force =     0.00002724   -0.00002505   -0.00004344
     atom   36 type  6   force =    -0.00002724   -0.00002505    0.00004344
     atom   37 type  6   force =    -0.00001997    0.00002408    0.00001325
     atom   38 type  6   force =     0.00001997    0.00002408   -0.00001325
     atom   39 type  6   force =    -0.00000753   -0.00000981    0.00000428
     atom   40 type  6   force =     0.00000753   -0.00000981   -0.00000428
     atom   41 type  3   force =    -0.00000305    0.00000183    0.00000179
     atom   42 type  3   force =     0.00000305    0.00000183   -0.00000179
     atom   43 type  3   force =    -0.00000081   -0.00000127    0.00000488
     atom   44 type  3   force =     0.00000081   -0.00000127   -0.00000488

     DFT-D3 dispersion contribution to forces:
     atom    1 type  4   force =    -0.00000000    0.00055569    0.00000000
     atom    2 type  4   force =     0.00000000   -0.00038387    0.00000000
     atom    3 type  5   force =    -0.00000000    0.00027076   -0.00000000
     atom    4 type  5   force =     0.00000000    0.00095032   -0.00000000
     atom    5 type  5   force =     0.00000000   -0.00153624    0.00000000
     atom    6 type  5   force =     0.00000000    0.00085489   -0.00000000
     atom    7 type  5   force =     0.00000000   -0.00003947   -0.00000000
     atom    8 type  2   force =     0.00000000   -0.00018867   -0.00000000
     atom    9 type  7   force =     0.00001975   -0.00015707   -0.00038274
     atom   10 type  7   force =    -0.00001975   -0.00015707    0.00038274
     atom   11 type  7   force =     0.00005446    0.00008459    0.00029342
     atom   12 type  7   force =    -0.00005446    0.00008459   -0.00029342
     atom   13 type  7   force =     0.00001535    0.00002847   -0.00007211
     atom   14 type  7   force =    -0.00001535    0.00002847    0.00007211
     atom   15 type  1   force =    -0.00006353    0.00011804   -0.00127736
     atom   16 type  1   force =     0.00006353    0.00011804    0.00127736
     atom   17 type  6   force =     0.00001689    0.00004695    0.00043283
     atom   18 type  6   force =    -0.00001689    0.00004695   -0.00043283
     atom   19 type  6   force =    -0.00001539    0.00004135   -0.00033480
     atom   20 type  6   force =     0.00001539    0.00004135    0.00033480
     atom   21 type  6   force =    -0.00003842   -0.00003183    0.00036915
     atom   22 type  6   force =     0.00003842   -0.00003183   -0.00036915
     atom   23 type  6   force =    -0.00005002   -0.00011673    0.00017532
     atom   24 type  6   force =     0.00005002   -0.00011673   -0.00017532
     atom   25 type  6   force =    -0.00017314    0.00098950    0.00013378
     atom   26 type  6   force =     0.00017314    0.00098950   -0.00013378
     atom   27 type  6   force =     0.00078853    0.00006521    0.00017172
     atom   28 type  6   force =    -0.00078853    0.00006521   -0.00017172
     atom   29 type  6   force =     0.00042911   -0.00065685   -0.00013420
     atom   30 type  6   force =    -0.00042911   -0.00065685    0.00013420
     atom   31 type  6   force =    -0.00029851    0.00049492    0.00015693
     atom   32 type  6   force =     0.00029851    0.00049492   -0.00015693
     atom   33 type  6   force =     0.00086850   -0.00041824    0.00036553
     atom   34 type  6   force =    -0.00086850   -0.00041824   -0.00036553
     atom   35 type  6   force =     0.00060670   -0.00047456   -0.00032970
     atom   36 type  6   force =    -0.00060670   -0.00047456    0.00032970
     atom   37 type  6   force =    -0.00014155   -0.00001710   -0.00055586
     atom   38 type  6   force =     0.00014155   -0.00001710    0.00055587
     atom   39 type  6   force =     0.00002629    0.00003854   -0.00053336
     atom   40 type  6   force =    -0.00002629    0.00003854    0.00053336
     atom   41 type  3   force =    -0.00028793    0.00015632   -0.00025131
     atom   42 type  3   force =     0.00028793    0.00015632    0.00025131
     atom   43 type  3   force =     0.00005879   -0.00043323   -0.00023239
     atom   44 type  3   force =    -0.00005879   -0.00043323    0.00023240

     Total force =     0.003537     Total SCF correction =     0.000326

     DFT-D3 dispersion Force =     0.004509

     Computing stress (Cartesian axis) and pressure

          total   stress  (Ry/bohr**3)                   (kbar)     P=       11.89
   0.00006611   0.00000000   0.00000246            9.73        0.00        0.36
   0.00000000   0.00007468   0.00000000            0.00       10.99        0.00
   0.00000246   0.00000000   0.00010171            0.36        0.00       14.96

     kinetic stress (kbar)  20948.29      0.00     14.04
                                0.00  20951.10      0.00
                               14.04      0.00  20665.40

     local   stress (kbar) -39691.52      0.00    103.21
                                0.00 -39327.48      0.00
                              103.21      0.00  18153.83

     nonloc. stress (kbar)   3939.98      0.00      0.37
                                0.00   3941.19      0.00
                                0.37      0.00   3922.67

     hartree stress (kbar)  22596.54      0.00    -44.73
                                0.00  22429.68      0.00
                              -44.73      0.00  -5673.03

     exc-cor stress (kbar)  -2932.55     -0.00     -0.06
                               -0.00  -2932.83     -0.00
                               -0.06     -0.00  -2929.56

     corecor stress (kbar)  -1932.70      0.00     -0.08
                                0.00  -1932.81      0.00
                               -0.08      0.00  -1934.38

     ewald   stress (kbar)  -2902.60      0.00    -72.47
                                0.00  -3101.94     -0.00
                              -72.47     -0.00 -32177.95

     hubbard stress (kbar)      0.00      0.00      0.00
                                0.00      0.00      0.00
                                0.00      0.00      0.00

     DFT-D   stress (kbar)    -15.73      0.00      0.09
                                0.00    -15.93      0.00
                                0.09      0.00    -12.03

     XDM     stress (kbar)      0.00      0.00      0.00
                                0.00      0.00      0.00
                                0.00      0.00      0.00

     dft-nl  stress (kbar)      0.00      0.00      0.00
                                0.00      0.00      0.00
                                0.00      0.00      0.00

     TS-vdW  stress (kbar)      0.00      0.00      0.00
                                0.00      0.00      0.00
                                0.00      0.00      0.00

     MDB     stress (kbar)      0.00      0.00      0.00
                                0.00      0.00      0.00
                                0.00      0.00      0.00

     3D-RISM stress (kbar)      0.00      0.00      0.00
                                0.00      0.00      0.00
                                0.00      0.00      0.00

     Energy error            =      2.7E-05 Ry
     Gradient error          =      9.6E-04 Ry/Bohr

     bfgs converged in  12 scf cycles and  11 bfgs steps
     (criteria: energy <  1.0E-04 Ry, force <  1.0E-03 Ry/Bohr)

     End of BFGS Geometry Optimization

     Final energy             =   -2631.1975768257 Ry

     File ./temp/phl-fe1-nspin-dftd3.bfgs deleted, as requested
Begin final coordinates

ATOMIC_POSITIONS (crystal)
K                0.0000000000        0.4932681256        0.0000000000
K                0.5000000000        0.0042891126        0.0000000000
Mg               0.0000000000        0.0036086768        0.5000000000
Mg               0.0000000000        0.3346940698        0.5000000000
Mg               0.0000000000        0.6619158605        0.5000000000
Mg               0.5000000000        0.8324523849        0.5000000000
Mg               0.5000000000        0.1751421691        0.5000000000
Fe               0.5000000000        0.4984725011        0.5000000000
Si               0.0822484730        0.1652218073        0.2228985846
Si               0.9177515120        0.1652218073        0.7771014304
Si               0.9344100884        0.8340500556        0.7711276382
Si               0.0655899116        0.8340500556        0.2288723618
Si               0.5636894640        0.6654514217        0.2260623065
Si               0.4363105360        0.6654514217        0.7739377235
Al               0.4178097039        0.3329505906        0.7757531223
Al               0.5821902661        0.3329505906        0.2242468777
O                0.1260063797        0.1640932167        0.3853988579
O                0.8739935903        0.1640932167        0.6146011121
O                0.8746886418        0.8319671033        0.6100117035
O                0.1253113582        0.8319671033        0.3899882965
O                0.6272489470        0.6666672393        0.3883122360
O                0.3727510530        0.6666672393        0.6116877340
O                0.3645558061        0.3376828221        0.6027928405
O                0.6354441939        0.3376828221        0.3972071595
O                0.3431961537        0.2025864014        0.1655061046
O                0.6568038463        0.2025864014        0.8344938804
O                0.9938964478        0.9972101827        0.1675962597
O                0.0061035522        0.9972101827        0.8324037553
O                0.6809198995        0.7764292633        0.8310084413
O                0.3190801005        0.7764292633        0.1689915587
O                0.8170157165        0.7305253770        0.1676297476
O                0.1829842835        0.7305253770        0.8323702824
O                0.4904756609        0.5080243725        0.1592940340
O                0.5095243391        0.5080243725        0.8407059660
O                0.1438465100        0.2776190048        0.8401466238
O                0.8561534750        0.2776190048        0.1598533762
O                0.1396211961        0.5021038720        0.3954421806
O                0.8603787739        0.5021038720        0.6045577894
O                0.6315242333        0.9996756576        0.3971927257
O                0.3684757667        0.9996756576        0.6028072743
H                0.1281601487        0.4921577172        0.3000256573
H                0.8718398433        0.4921577172        0.6999743427
H                0.5952386917        0.0137124217        0.3017988846
H                0.4047613083        0.0137124217        0.6982010854
End final coordinates

     Writing all to output data dir ./temp/phl-fe1-nspin-dftd3.save/ :
     XML data file, charge density, pseudopotentials, collected wavefunctions

     General routines

     Parallel routines

     PAW routines

   This run was terminated on:   1:42:43  29Dec2024

   JOB DONE.