     Program PWSCF v.7.3.1 starts on 29Jan2025 at  6:50:28

     Reading input from vc_relax.in

     Current dimensions of program PWSCF are:
     Max number of different atomic species (ntypx) = 10
     Max number of k-points (npk) =  40000
     Max angular momentum in pseudopotentials (lmaxx) =  4
     file Al.pbe-n-kjpaw_psl.1.0.0.UPF: wavefunction(s)  3S 3P renormalized
     file Fe.pbe-spn-kjpaw_psl.1.0.0.UPF: wavefunction(s)  3P 3D renormalized
     file H.pbe-kjpaw_psl.1.0.0.UPF: wavefunction(s)  1S renormalized
     file K.pbe-spn-kjpaw_psl.1.0.0.UPF: wavefunction(s)  3S renormalized
     file Mg.pbe-spnl-kjpaw_psl.1.0.0.UPF: wavefunction(s)  2P renormalized
     file O.pbe-n-kjpaw_psl.1.0.0.UPF: wavefunction(s)  2S 2P renormalized
     file Si.pbe-n-kjpaw_psl.1.0.0.UPF: wavefunction(s)  3S 3P renormalized

     R & G space division:  proc/nbgrp/npool/nimage =       6
     Subspace diagonalization in iterative solution of the eigenvalue problem:
     one sub-group per band group will be used

     Using Slab Decomposition

     bravais-lattice index     =          -12
     lattice parameter (alat)  =      10.0136  a.u.
     unit-cell volume          =    3303.4414 (a.u.)^3
     number of atoms/cell      =           44
     number of atomic types    =            7
     number of electrons       =       262.00
     number of Kohn-Sham states=          157
     kinetic-energy cutoff     =      60.0000  Ry
     charge density cutoff     =     480.0000  Ry
     scf convergence threshold =      1.0E-06
     mixing beta               =       0.7000
     number of iterations used =            8  plain     mixing
     energy convergence thresh.=      1.0E-04
     force convergence thresh. =      1.0E-03
     press convergence thresh. =      5.0E-01
     Exchange-correlation= SLA  PW   PBX  PBC
                           (   1   4   3   4   0   0   0)
     nstep                     =           50

     celldm(1)=  10.013640  celldm(2)=   1.735306  celldm(3)=   1.926511
     celldm(4)=   0.000000  celldm(5)=  -0.177565  celldm(6)=   0.000000

     crystal axes: (cart. coord. in units of alat)
               a(1) = (   1.000000   0.000000   0.000000 )
               a(2) = (   0.000000   1.735306   0.000000 )
               a(3) = (  -0.342081   0.000000   1.895896 )

     reciprocal axes: (cart. coord. in units 2 pi/alat)
               b(1) = (  1.000000 -0.000000  0.180432 )
               b(2) = (  0.000000  0.576267 -0.000000 )
               b(3) = (  0.000000  0.000000  0.527455 )

     PseudoPot. # 1 for Al read from file:
     ./../../../pseudos/Al.pbe-n-kjpaw_psl.1.0.0.UPF
     MD5 check sum: 502b6b27b9c6270cab5dd1084b96fa6d
     Pseudo is Projector augmented-wave + core cor, Zval =  3.0
     Generated using &quot;atomic&quot; code by A. Dal Corso  v.6.3
     Shape of augmentation charge: PSQ
     Using radial grid of 1135 points,  6 beta functions with:
                l(1) =   0
                l(2) =   0
                l(3) =   1
                l(4) =   1
                l(5) =   2
                l(6) =   2
     Q(r) pseudized with 0 coefficients

     PseudoPot. # 2 for Fe read from file:
     ./../../../pseudos/Fe.pbe-spn-kjpaw_psl.1.0.0.UPF
     MD5 check sum: fc81f059e5c5069939230b1155715ae8
     Pseudo is Projector augmented-wave + core cor, Zval = 16.0
     Generated using &quot;atomic&quot; code by A. Dal Corso  v.6.3
     Shape of augmentation charge: PSQ
     Using radial grid of 1191 points,  6 beta functions with:
                l(1) =   0
                l(2) =   0
                l(3) =   1
                l(4) =   1
                l(5) =   2
                l(6) =   2
     Q(r) pseudized with 0 coefficients

     PseudoPot. # 3 for H  read from file:
     ./../../../pseudos/H.pbe-kjpaw_psl.1.0.0.UPF
     MD5 check sum: d81a744832360e4a8af0b0b5b123bc2a
     Pseudo is Projector augmented-wave, Zval =  1.0
     Generated using &quot;atomic&quot; code by A. Dal Corso  v.6.3MaX
     Shape of augmentation charge: PSQ
     Using radial grid of  929 points,  2 beta functions with:
                l(1) =   0
                l(2) =   0
     Q(r) pseudized with 0 coefficients

     PseudoPot. # 4 for K  read from file:
     ./../../../pseudos/K.pbe-spn-kjpaw_psl.1.0.0.UPF
     MD5 check sum: 34cc42130a09071ebe376fd42eb21491
     Pseudo is Projector augmented-wave + core cor, Zval =  9.0
     Generated using &quot;atomic&quot; code by A. Dal Corso  v.6.2.2
     Shape of augmentation charge: PSQ
     Using radial grid of 1165 points,  6 beta functions with:
                l(1) =   0
                l(2) =   0
                l(3) =   1
                l(4) =   1
                l(5) =   2
                l(6) =   2
     Q(r) pseudized with 0 coefficients

     PseudoPot. # 5 for Mg read from file:
     ./../../../pseudos/Mg.pbe-spnl-kjpaw_psl.1.0.0.UPF
     MD5 check sum: fda14e0d92a6a9a5ebed782e5a4b3067
     Pseudo is Projector augmented-wave + core cor, Zval = 10.0
     Generated using &quot;atomic&quot; code by A. Dal Corso  v.6.3
     Shape of augmentation charge: PSQ
     Using radial grid of 1129 points,  4 beta functions with:
                l(1) =   0
                l(2) =   0
                l(3) =   1
                l(4) =   1
     Q(r) pseudized with 0 coefficients

     PseudoPot. # 6 for O  read from file:
     ./../../../pseudos/O.pbe-n-kjpaw_psl.1.0.0.UPF
     MD5 check sum: e99d9cef9b487d1ca56f5b95ecd0fd7a
     Pseudo is Projector augmented-wave + core cor, Zval =  6.0
     Generated using &quot;atomic&quot; code by A. Dal Corso  v.6.3
     Shape of augmentation charge: PSQ
     Using radial grid of 1095 points,  4 beta functions with:
                l(1) =   0
                l(2) =   0
                l(3) =   1
                l(4) =   1
     Q(r) pseudized with 0 coefficients

     PseudoPot. # 7 for Si read from file:
     ./../../../pseudos/Si.pbe-n-kjpaw_psl.1.0.0.UPF
     MD5 check sum: c39c59da582df4a0d9f10159256ea34e
     Pseudo is Projector augmented-wave + core cor, Zval =  4.0
     Generated using &quot;atomic&quot; code by A. Dal Corso  v.6.3
     Shape of augmentation charge: PSQ
     Using radial grid of 1141 points,  6 beta functions with:
                l(1) =   0
                l(2) =   0
                l(3) =   1
                l(4) =   1
                l(5) =   2
                l(6) =   2
     Q(r) pseudized with 0 coefficients

     atomic species   valence    mass     pseudopotential
     Al                3.00    26.98154     Al( 1.00)
     Fe               16.00    55.84500     Fe( 1.00)
     H                 1.00     1.00794     H ( 1.00)
     K                 9.00    39.09830     K ( 1.00)
     Mg               10.00    24.30500     Mg( 1.00)
     O                 6.00    15.99940     O ( 1.00)
     Si                4.00    28.08550     Si( 1.00)

      2 Sym. Ops. (no inversion) found

                                    s                        frac. trans.

      isym =  1     identity

 cryst.   s( 1) = (     1          0          0      )
                  (     0          1          0      )
                  (     0          0          1      )

 cart.    s( 1) = (  1.0000000  0.0000000 -0.0000000 )
                  (  0.0000000  1.0000000  0.0000000 )
                  (  0.0000000  0.0000000  1.0000000 )

      isym =  2     180 deg rotation - cart. axis [0,1,0]

[...]

     point group C_2  (2)
     there are  2 classes
     the character table:

       E     C2
A      1.00  1.00
B      1.00 -1.00

     the symmetry operations in each class and the name of the first element:

     E        1
          identity
     C2       2
          180 deg rotation - cart. axis [0,1,0]

   Cartesian axes

     site n.     atom                  positions (alat units)
         1        K      tau(   1) = (   0.0000000   0.8669014   0.0000000  )
         2        K      tau(   2) = (   0.5000000   0.0051532   0.0000000  )
         3        Mg     tau(   3) = (  -0.1710407   0.0148909   0.9479482  )
         4        Mg     tau(   4) = (  -0.1710407   1.1475564   0.9479482  )
         5        Mg     tau(   5) = (   0.3289593   0.8514273   0.9479482  )
         6        Mg     tau(   6) = (   0.3289593   1.4491760   0.9479482  )
         7        Mg     tau(   7) = (   0.3289593   0.3030115   0.9479482  )
         8        Si     tau(   8) = (   0.0094903   0.2916277   0.4229574  )
         9        Si     tau(   9) = (   0.6484284   0.2916277   1.4729391  )
        10        Si     tau(  10) = (   0.6721498   1.4501551   1.4603696  )
        11        Si     tau(  11) = (  -0.0142311   1.4501551   0.4355268  )
        12        Si     tau(  12) = (   0.4851684   1.1577808   0.4300728  )
        13        Si     tau(  13) = (   0.1727503   1.1577808   1.4658235  )
        14        Al     tau(  14) = (   0.1458163   0.5770055   1.4716227  )
        15        Al     tau(  15) = (   0.5121024   0.5770055   0.4242737  )
        16        O      tau(  16) = (  -0.0046606   0.2912991   0.7316457  )
        17        O      tau(  17) = (   0.6625792   0.2912991   1.1642507  )
        18        O      tau(  18) = (   0.6669009   1.4446010   1.1552531  )
        19        O      tau(  19) = (  -0.0089822   1.4446010   0.7406432  )
        20        O      tau(  20) = (   0.4908438   1.1585015   0.7371132  )
        21        O      tau(  21) = (   0.1670749   1.1585015   1.1587832  )
        22        O      tau(  22) = (   0.1532926   0.5783050   1.1449947  )
        23        O      tau(  23) = (   0.5046261   0.5783050   0.7509017  )
        24        O      tau(  24) = (   0.2905784   0.3520519   0.3149283  )
        25        O      tau(  25) = (   0.3673403   0.3520519   1.5809681  )
        26        O      tau(  26) = (   0.9390241   1.7346884   0.3216960  )
        27        O      tau(  27) = (  -0.2811054   1.7346884   1.5742004  )
        28        O      tau(  28) = (   0.4011943   1.3456051   1.5749356  )
        29        O      tau(  29) = (   0.2567244   1.3456051   0.3209609  )
        30        O      tau(  30) = (   0.7553565   1.2752465   0.3186945  )
        31        O      tau(  31) = (  -0.0974377   1.2752465   1.5772019  )
        32        O      tau(  32) = (   0.4423836   0.8828498   0.3051680  )
        33        O      tau(  33) = (   0.2155351   0.8828498   1.5907285  )
        34        O      tau(  34) = (  -0.1501541   0.4873869   1.5961186  )
        35        O      tau(  35) = (   0.8080728   0.4873869   0.2997779  )
        36        O      tau(  36) = (  -0.0094740   0.8608807   0.7498555  )
        37        O      tau(  37) = (   0.6673926   0.8608807   1.1460410  )
        38        O      tau(  38) = (   0.4958521   0.0004388   0.7533871  )
        39        O      tau(  39) = (   0.1620666   0.0004388   1.1425093  )
        40        H      tau(  40) = (  -0.0187329   0.8258342   0.5707258  )
        41        H      tau(  41) = (   0.6766516   0.8258342   1.3251707  )
        42        H      tau(  42) = (   0.4916572   0.0306985   0.5735819  )
        43        H      tau(  43) = (   0.1662615   0.0306985   1.3223146  )
[...]
     The core correction contribution to forces
     atom    1 type  4   force =    -0.00000000   -0.00146606   -0.00000000
     atom    2 type  4   force =    -0.00000000    0.00147906    0.00000000
     atom    3 type  5   force =     0.00000000    0.00027656   -0.00000000
     atom    4 type  5   force =    -0.00000000   -0.00036318    0.00000000
     atom    5 type  5   force =    -0.00000000   -0.00095105   -0.00000000
     atom    6 type  5   force =     0.00000000    0.00031130   -0.00000000
     atom    7 type  5   force =     0.00000000    0.00043993    0.00000000
     atom    8 type  7   force =     0.00184203    0.01030618    0.00507070
     atom    9 type  7   force =    -0.00184205    0.01030619   -0.00507062
     atom   10 type  7   force =     0.00025821    0.00253456   -0.01357311
     atom   11 type  7   force =    -0.00025820    0.00253456    0.01357307
     atom   12 type  7   force =    -0.00131452   -0.01204229    0.00958468
     atom   13 type  7   force =     0.00131453   -0.01204228   -0.00958476
     atom   14 type  1   force =    -0.00022116   -0.00164180   -0.00994159
     atom   15 type  1   force =     0.00022117   -0.00164180    0.00994156
     atom   16 type  6   force =     0.00041064   -0.00097385    0.00599698
     atom   17 type  6   force =    -0.00041065   -0.00097385   -0.00599698
     atom   18 type  6   force =    -0.00000420    0.00002487   -0.00716276
     atom   19 type  6   force =     0.00000421    0.00002487    0.00716276
     atom   20 type  6   force =     0.00004878   -0.00024427    0.00683624
     atom   21 type  6   force =    -0.00004878   -0.00024427   -0.00683624
     atom   22 type  6   force =     0.00181849   -0.00011074   -0.00241059
     atom   23 type  6   force =    -0.00181849   -0.00011074    0.00241058
     atom   24 type  6   force =     0.00469001   -0.00210544   -0.00570410
     atom   25 type  6   force =    -0.00469002   -0.00210544    0.00570408
     atom   26 type  6   force =    -0.00361218    0.00079060   -0.00700175
     atom   27 type  6   force =     0.00361219    0.00079061    0.00700170
     atom   28 type  6   force =    -0.00160424    0.00230235    0.00734775
     atom   29 type  6   force =     0.00160424    0.00230235   -0.00734773
     atom   30 type  6   force =     0.00081359   -0.00202530   -0.00752375
     atom   31 type  6   force =    -0.00081359   -0.00202529    0.00752374
     atom   32 type  6   force =    -0.00252519   -0.00350684   -0.00662876
     atom   33 type  6   force =     0.00252517   -0.00350683    0.00662880
     atom   34 type  6   force =     0.00088077    0.00441564    0.00664714
     atom   35 type  6   force =    -0.00088078    0.00441563   -0.00664713
     atom   36 type  6   force =     0.00161962    0.00338328    0.01044599
     atom   37 type  6   force =    -0.00161964    0.00338328   -0.01044602
     atom   38 type  6   force =     0.00001676   -0.00175897    0.01094387
     atom   39 type  6   force =    -0.00001675   -0.00175897   -0.01094384
     atom   40 type  3   force =     0.00000000    0.00000000    0.00000000
     atom   41 type  3   force =     0.00000000    0.00000000    0.00000000
     atom   42 type  3   force =     0.00000000    0.00000000    0.00000000
     atom   43 type  3   force =     0.00000000    0.00000000    0.00000000
     atom   44 type  2   force =     0.00000000    0.00359949   -0.00000000
     The Hubbard contrib.    to forces
     atom    1 type  4   force =     0.00000000    0.00000000    0.00000000
     atom    2 type  4   force =     0.00000000    0.00000000    0.00000000
     atom    3 type  5   force =     0.00000000    0.00000000    0.00000000
     atom    4 type  5   force =     0.00000000    0.00000000    0.00000000
     atom    5 type  5   force =     0.00000000    0.00000000    0.00000000
     atom    6 type  5   force =     0.00000000    0.00000000    0.00000000
     atom    7 type  5   force =     0.00000000    0.00000000    0.00000000
     atom    8 type  7   force =     0.00000000    0.00000000    0.00000000
     atom    9 type  7   force =     0.00000000    0.00000000    0.00000000
     atom   10 type  7   force =     0.00000000    0.00000000    0.00000000
     atom   11 type  7   force =     0.00000000    0.00000000    0.00000000
     atom   12 type  7   force =     0.00000000    0.00000000    0.00000000
     atom   13 type  7   force =     0.00000000    0.00000000    0.00000000
     atom   14 type  1   force =     0.00000000    0.00000000    0.00000000
     atom   15 type  1   force =     0.00000000    0.00000000    0.00000000
     atom   16 type  6   force =     0.00000000    0.00000000    0.00000000
     atom   17 type  6   force =     0.00000000    0.00000000    0.00000000
     atom   18 type  6   force =     0.00000000    0.00000000    0.00000000
     atom   19 type  6   force =     0.00000000    0.00000000    0.00000000
     atom   20 type  6   force =     0.00000000    0.00000000    0.00000000
     atom   21 type  6   force =     0.00000000    0.00000000    0.00000000
     atom   22 type  6   force =     0.00000000    0.00000000    0.00000000
     atom   23 type  6   force =     0.00000000    0.00000000    0.00000000
     atom   24 type  6   force =     0.00000000    0.00000000    0.00000000
     atom   25 type  6   force =     0.00000000    0.00000000    0.00000000
     atom   26 type  6   force =     0.00000000    0.00000000    0.00000000
     atom   27 type  6   force =     0.00000000    0.00000000    0.00000000
     atom   28 type  6   force =     0.00000000    0.00000000    0.00000000
     atom   29 type  6   force =     0.00000000    0.00000000    0.00000000
     atom   30 type  6   force =     0.00000000    0.00000000    0.00000000
     atom   31 type  6   force =     0.00000000    0.00000000    0.00000000
     atom   32 type  6   force =     0.00000000    0.00000000    0.00000000
     atom   33 type  6   force =     0.00000000    0.00000000    0.00000000
     atom   34 type  6   force =     0.00000000    0.00000000    0.00000000
     atom   35 type  6   force =     0.00000000    0.00000000    0.00000000
     atom   36 type  6   force =     0.00000000    0.00000000    0.00000000
     atom   37 type  6   force =     0.00000000    0.00000000    0.00000000
     atom   38 type  6   force =     0.00000000    0.00000000    0.00000000
     atom   39 type  6   force =     0.00000000    0.00000000    0.00000000
     atom   40 type  3   force =     0.00000000    0.00000000    0.00000000
     atom   41 type  3   force =     0.00000000    0.00000000    0.00000000
     atom   42 type  3   force =     0.00000000    0.00000000    0.00000000
     atom   43 type  3   force =     0.00000000    0.00000000    0.00000000
     atom   44 type  2   force =     0.00000000    0.00000000    0.00000000
     The SCF correction term to forces
     atom    1 type  4   force =     0.00000000   -0.00000861   -0.00000000
     atom    2 type  4   force =     0.00000000    0.00000978    0.00000000
     atom    3 type  5   force =     0.00000000    0.00001465   -0.00000000
     atom    4 type  5   force =    -0.00000000   -0.00000728    0.00000000
     atom    5 type  5   force =     0.00000000   -0.00000997    0.00000000
     atom    6 type  5   force =     0.00000000    0.00000253   -0.00000000
     atom    7 type  5   force =     0.00000000    0.00000644    0.00000000
     atom    8 type  7   force =     0.00000099    0.00000275    0.00000150
     atom    9 type  7   force =    -0.00000099    0.00000275   -0.00000150
     atom   10 type  7   force =     0.00000055    0.00000495    0.00000073
     atom   11 type  7   force =    -0.00000055    0.00000495   -0.00000073
     atom   12 type  7   force =    -0.00000062   -0.00000602   -0.00000002
     atom   13 type  7   force =     0.00000062   -0.00000602    0.00000002
     atom   14 type  1   force =    -0.00000000   -0.00000205   -0.00000226
     atom   15 type  1   force =     0.00000000   -0.00000205    0.00000226
     atom   16 type  6   force =    -0.00000406    0.00000682    0.00001426
     atom   17 type  6   force =     0.00000406    0.00000682   -0.00001426
     atom   18 type  6   force =     0.00000296    0.00000609   -0.00000162
     atom   19 type  6   force =    -0.00000296    0.00000609    0.00000162
     atom   20 type  6   force =     0.00000196   -0.00000927    0.00000925
     atom   21 type  6   force =    -0.00000196   -0.00000927   -0.00000925
     atom   22 type  6   force =    -0.00000521   -0.00000407   -0.00001620
     atom   23 type  6   force =     0.00000521   -0.00000407    0.00001620
     atom   24 type  6   force =     0.00000016   -0.00000719   -0.00000366
     atom   25 type  6   force =    -0.00000016   -0.00000719    0.00000366
     atom   26 type  6   force =    -0.00000009    0.00000163   -0.00000159
     atom   27 type  6   force =     0.00000009    0.00000163    0.00000159
     atom   28 type  6   force =     0.00000432    0.00000467    0.00000242
     atom   29 type  6   force =    -0.00000432    0.00000467   -0.00000242
     atom   30 type  6   force =     0.00000414    0.00000393   -0.00000038
     atom   31 type  6   force =    -0.00000414    0.00000393    0.00000038
     atom   32 type  6   force =    -0.00000316   -0.00000230   -0.00000430
     atom   33 type  6   force =     0.00000316   -0.00000230    0.00000430
     atom   34 type  6   force =    -0.00000483   -0.00000204    0.00000274
     atom   35 type  6   force =     0.00000483   -0.00000204   -0.00000274
     atom   36 type  6   force =    -0.00000270   -0.00001163    0.00001020
     atom   37 type  6   force =     0.00000270   -0.00001163   -0.00001020
     atom   38 type  6   force =     0.00000222    0.00001194    0.00000161
     atom   39 type  6   force =    -0.00000222    0.00001194   -0.00000161
     atom   40 type  3   force =    -0.00000003   -0.00000082    0.00000452
     atom   41 type  3   force =     0.00000003   -0.00000082   -0.00000452
     atom   42 type  3   force =     0.00000010    0.00000119    0.00000219
     atom   43 type  3   force =    -0.00000010    0.00000119   -0.00000219
     atom   44 type  2   force =    -0.00000000   -0.00001370   -0.00000000

     DFT-D3 dispersion contribution to forces:
     atom    1 type  4   force =    -0.00000000    0.00078695   -0.00000000
     atom    2 type  4   force =    -0.00000000   -0.00048286    0.00000000
     atom    3 type  5   force =     0.00000000    0.00067601    0.00000000
     atom    4 type  5   force =    -0.00000000   -0.00153748    0.00000000
     atom    5 type  5   force =     0.00000000   -0.00083108    0.00000000
     atom    6 type  5   force =    -0.00000000    0.00116988    0.00000000
     atom    7 type  5   force =    -0.00000000   -0.00003794   -0.00000000
     atom    8 type  7   force =    -0.00002510   -0.00004183   -0.00007012
     atom    9 type  7   force =     0.00002510   -0.00004183    0.00007012
     atom   10 type  7   force =     0.00005210   -0.00003800    0.00013721
     atom   11 type  7   force =    -0.00005210   -0.00003800   -0.00013721
     atom   12 type  7   force =    -0.00014967    0.00012994   -0.00016543
     atom   13 type  7   force =     0.00014967    0.00012994    0.00016543
     atom   14 type  1   force =     0.00001575    0.00007311   -0.00098241
     atom   15 type  1   force =    -0.00001575    0.00007311    0.00098241
     atom   16 type  6   force =     0.00000152   -0.00001459    0.00048698
     atom   17 type  6   force =    -0.00000152   -0.00001459   -0.00048698
     atom   18 type  6   force =    -0.00001038    0.00001935   -0.00037119
     atom   19 type  6   force =     0.00001038    0.00001934    0.00037119
     atom   20 type  6   force =    -0.00000344   -0.00005605    0.00041032
     atom   21 type  6   force =     0.00000344   -0.00005605   -0.00041032
     atom   22 type  6   force =     0.00003675   -0.00003268    0.00007938
     atom   23 type  6   force =    -0.00003675   -0.00003268   -0.00007938
     atom   24 type  6   force =    -0.00021176    0.00106177    0.00021920
     atom   25 type  6   force =     0.00021176    0.00106177   -0.00021920
     atom   26 type  6   force =     0.00084227    0.00008652    0.00019948
     atom   27 type  6   force =    -0.00084227    0.00008652   -0.00019948
     atom   28 type  6   force =     0.00035976   -0.00050915   -0.00010909
     atom   29 type  6   force =    -0.00035976   -0.00050915    0.00010909
     atom   30 type  6   force =    -0.00023162    0.00032910    0.00011911
     atom   31 type  6   force =     0.00023162    0.00032910   -0.00011911
     atom   32 type  6   force =     0.00093400   -0.00045884    0.00043476
     atom   33 type  6   force =    -0.00093400   -0.00045884   -0.00043476
     atom   34 type  6   force =     0.00072363   -0.00068830   -0.00033215
     atom   35 type  6   force =    -0.00072363   -0.00068830    0.00033215
     atom   36 type  6   force =     0.00007755    0.00013126   -0.00052340
     atom   37 type  6   force =    -0.00007755    0.00013126    0.00052340
     atom   38 type  6   force =     0.00002509    0.00004685   -0.00047973
     atom   39 type  6   force =    -0.00002509    0.00004685    0.00047973
     atom   40 type  3   force =     0.00020177    0.00043574   -0.00013915
     atom   41 type  3   force =    -0.00020177    0.00043574    0.00013915
     atom   42 type  3   force =     0.00008778   -0.00052095   -0.00022753
     atom   43 type  3   force =    -0.00008778   -0.00052095    0.00022753
     atom   44 type  2   force =    -0.00000000    0.00035008    0.00000000

     Total force =     0.001889     Total SCF correction =     0.000062

     DFT-D3 dispersion Force =     0.004603

     Computing stress (Cartesian axis) and pressure

          total   stress  (Ry/bohr**3)                   (kbar)     P=       -0.27
  -0.00000042   0.00000000  -0.00000038           -0.06        0.00       -0.06
   0.00000000  -0.00000118   0.00000000            0.00       -0.17        0.00
  -0.00000038   0.00000000  -0.00000398           -0.06        0.00       -0.59

     kinetic stress (kbar)  20382.73      0.00     -4.47
                                0.00  20370.04      0.00
                               -4.47      0.00  20089.80

     local   stress (kbar) -42492.41      0.00    -54.47
                                0.00 -41947.90     -0.00
                              -54.47     -0.00  20961.63

     nonloc. stress (kbar)   3835.61      0.00     -4.50
                                0.00   3836.09      0.00
                               -4.50      0.00   3820.56

     hartree stress (kbar)  23870.97      0.00     21.31
                                0.00  23599.46      0.00
                               21.31      0.00  -7162.08

     exc-cor stress (kbar)  -2852.18     -0.00      0.18
                               -0.00  -2852.09      0.00
                                0.18      0.00  -2849.08

     corecor stress (kbar)  -1880.70      0.00      0.25
                                0.00  -1880.75     -0.00
                                0.25     -0.00  -1882.34

     ewald   stress (kbar)   -848.95     -0.00     41.59
                               -0.00  -1109.86      0.00
                               41.59      0.00 -32967.95

     hubbard stress (kbar)      0.00      0.00      0.00
                                0.00      0.00      0.00
                                0.00      0.00      0.00

     DFT-D   stress (kbar)    -15.13     -0.00      0.06
                               -0.00    -15.17      0.00
                                0.06      0.00    -11.11

     XDM     stress (kbar)      0.00      0.00      0.00
                                0.00      0.00      0.00
                                0.00      0.00      0.00

     dft-nl  stress (kbar)      0.00      0.00      0.00
                                0.00      0.00      0.00
                                0.00      0.00      0.00

     TS-vdW  stress (kbar)      0.00      0.00      0.00
                                0.00      0.00      0.00
                                0.00      0.00      0.00

     MDB     stress (kbar)      0.00      0.00      0.00
                                0.00      0.00      0.00
                                0.00      0.00      0.00

     3D-RISM stress (kbar)      0.00      0.00      0.00
                                0.00      0.00      0.00
                                0.00      0.00      0.00

     Writing all to output data dir ./temp/phl-fe1-fe2-nspin.save/ :
     XML data file, charge density, pseudopotentials, collected wavefunctions

     General routines

     Parallel routines

     PAW routines

   This run was terminated on:  19:14:20  29Jan2025

   JOB DONE.