     Program PWSCF v.7.3.1 starts on 26Dec2024 at  0: 9:33

     Reading input from relax.in
Warning: card  &CELL ignored
Warning: card    CELL_DOFREE     = 'IBRAV' ignored
Warning: card  / ignored

     Current dimensions of program PWSCF are:
     Max number of different atomic species (ntypx) = 10
     Max number of k-points (npk) =  40000
     Max angular momentum in pseudopotentials (lmaxx) =  4
     file Al.pbe-n-kjpaw_psl.1.0.0.UPF: wavefunction(s)  3S 3P renormalized
     file H.pbe-kjpaw_psl.1.0.0.UPF: wavefunction(s)  1S renormalized
     file K.pbe-spn-kjpaw_psl.1.0.0.UPF: wavefunction(s)  3S renormalized
     file Mg.pbe-spnl-kjpaw_psl.1.0.0.UPF: wavefunction(s)  2P renormalized
     file O.pbe-n-kjpaw_psl.1.0.0.UPF: wavefunction(s)  2S 2P renormalized
     file Si.pbe-n-kjpaw_psl.1.0.0.UPF: wavefunction(s)  3S 3P renormalized

     R & G space division:  proc/nbgrp/npool/nimage =       4
     Subspace diagonalization in iterative solution of the eigenvalue problem:
     a serial algorithm will be used

     Using Slab Decomposition

     bravais-lattice index     =          -12
     lattice parameter (alat)  =      10.0136  a.u.
     unit-cell volume          =    3303.4414 (a.u.)^3
     number of atoms/cell      =           44
     number of atomic types    =            6
     number of electrons       =       256.00
     number of Kohn-Sham states=          128
     kinetic-energy cutoff     =      60.0000  Ry
     charge density cutoff     =     480.0000  Ry
     scf convergence threshold =      1.0E-06
     mixing beta               =       0.7000
     number of iterations used =            8  plain     mixing
     energy convergence thresh.=      1.0E-04
     force convergence thresh. =      1.0E-03
     Exchange-correlation= SLA  PW   PBX  PBC
                           (   1   4   3   4   0   0   0)
     nstep                     =           50

     celldm(1)=  10.013640  celldm(2)=   1.735306  celldm(3)=   1.926511
     celldm(4)=   0.000000  celldm(5)=  -0.177565  celldm(6)=   0.000000

     crystal axes: (cart. coord. in units of alat)
               a(1) = (   1.000000   0.000000   0.000000 )
               a(2) = (   0.000000   1.735306   0.000000 )
               a(3) = (  -0.342081   0.000000   1.895896 )

     reciprocal axes: (cart. coord. in units 2 pi/alat)
               b(1) = (  1.000000 -0.000000  0.180432 )
               b(2) = (  0.000000  0.576267 -0.000000 )
               b(3) = (  0.000000  0.000000  0.527455 )

     PseudoPot. # 1 for Al read from file:
     ./../../pseudos/Al.pbe-n-kjpaw_psl.1.0.0.UPF
     MD5 check sum: 502b6b27b9c6270cab5dd1084b96fa6d
     Pseudo is Projector augmented-wave + core cor, Zval =  3.0
     Generated using &quot;atomic&quot; code by A. Dal Corso  v.6.3
     Shape of augmentation charge: PSQ
     Using radial grid of 1135 points,  6 beta functions with:
                l(1) =   0
                l(2) =   0
                l(3) =   1
                l(4) =   1
                l(5) =   2
                l(6) =   2
     Q(r) pseudized with 0 coefficients

     PseudoPot. # 2 for H  read from file:
     ./../../pseudos/H.pbe-kjpaw_psl.1.0.0.UPF
     MD5 check sum: d81a744832360e4a8af0b0b5b123bc2a
     Pseudo is Projector augmented-wave, Zval =  1.0
     Generated using &quot;atomic&quot; code by A. Dal Corso  v.6.3MaX
     Shape of augmentation charge: PSQ
     Using radial grid of  929 points,  2 beta functions with:
                l(1) =   0
                l(2) =   0
     Q(r) pseudized with 0 coefficients

     PseudoPot. # 3 for K  read from file:
     ./../../pseudos/K.pbe-spn-kjpaw_psl.1.0.0.UPF
     MD5 check sum: 34cc42130a09071ebe376fd42eb21491
     Pseudo is Projector augmented-wave + core cor, Zval =  9.0
     Generated using &quot;atomic&quot; code by A. Dal Corso  v.6.2.2
     Shape of augmentation charge: PSQ
     Using radial grid of 1165 points,  6 beta functions with:
                l(1) =   0
                l(2) =   0
                l(3) =   1
                l(4) =   1
                l(5) =   2
                l(6) =   2
     Q(r) pseudized with 0 coefficients

     PseudoPot. # 4 for Mg read from file:
     ./../../pseudos/Mg.pbe-spnl-kjpaw_psl.1.0.0.UPF
     MD5 check sum: fda14e0d92a6a9a5ebed782e5a4b3067
     Pseudo is Projector augmented-wave + core cor, Zval = 10.0
     Generated using &quot;atomic&quot; code by A. Dal Corso  v.6.3
     Shape of augmentation charge: PSQ
     Using radial grid of 1129 points,  4 beta functions with:
                l(1) =   0
                l(2) =   0
                l(3) =   1
                l(4) =   1
     Q(r) pseudized with 0 coefficients

     PseudoPot. # 5 for O  read from file:
     ./../../pseudos/O.pbe-n-kjpaw_psl.1.0.0.UPF
     MD5 check sum: e99d9cef9b487d1ca56f5b95ecd0fd7a
     Pseudo is Projector augmented-wave + core cor, Zval =  6.0
     Generated using &quot;atomic&quot; code by A. Dal Corso  v.6.3
     Shape of augmentation charge: PSQ
     Using radial grid of 1095 points,  4 beta functions with:
                l(1) =   0
                l(2) =   0
                l(3) =   1
                l(4) =   1
     Q(r) pseudized with 0 coefficients

     PseudoPot. # 6 for Si read from file:
     ./../../pseudos/Si.pbe-n-kjpaw_psl.1.0.0.UPF
     MD5 check sum: c39c59da582df4a0d9f10159256ea34e
     Pseudo is Projector augmented-wave + core cor, Zval =  4.0
     Generated using &quot;atomic&quot; code by A. Dal Corso  v.6.3
     Shape of augmentation charge: PSQ
     Using radial grid of 1141 points,  6 beta functions with:
                l(1) =   0
                l(2) =   0
                l(3) =   1
                l(4) =   1
                l(5) =   2
                l(6) =   2
     Q(r) pseudized with 0 coefficients

     atomic species   valence    mass     pseudopotential
     Al                3.00    26.98154     Al( 1.00)
     H                 1.00     1.00794     H ( 1.00)
     K                 9.00    39.09830     K ( 1.00)
     Mg               10.00    24.30500     Mg( 1.00)
     O                 6.00    15.99940     O ( 1.00)
     Si                4.00    28.08550     Si( 1.00)

      2 Sym. Ops. (no inversion) found

                                    s                        frac. trans.

      isym =  1     identity

 cryst.   s( 1) = (     1          0          0      )
                  (     0          1          0      )
                  (     0          0          1      )

 cart.    s( 1) = (  1.0000000  0.0000000 -0.0000000 )
                  (  0.0000000  1.0000000  0.0000000 )
                  (  0.0000000  0.0000000  1.0000000 )

      isym =  2     180 deg rotation - cart. axis [0,1,0]

 cryst.   s( 2) = (    -1          0          0      )
                  (     0          1          0      )
                  (     0          0         -1      )

 cart.    s( 2) = ( -1.0000000  0.0000000  0.0000000 )
                  (  0.0000000  1.0000000  0.0000000 )
                  (  0.0000000  0.0000000 -1.0000000 )

     point group C_2  (2)
     there are  2 classes
     the character table:

       E     C2
A      1.00  1.00
B      1.00 -1.00

     the symmetry operations in each class and the name of the first element:

     E        1
          identity
     C2       2
          180 deg rotation - cart. axis [0,1,0]

   Cartesian axes

     site n.     atom                  positions (alat units)
         1        K      tau(   1) = (   0.0000000   0.8559224   0.0000000  )
         2        K      tau(   2) = (   0.5000000   0.0093568   0.0000000  )
         3        Mg     tau(   3) = (  -0.1710407   0.0067712   0.9479482  )
         4        Mg     tau(   4) = (  -0.1710407   0.5780843   0.9479482  )
         5        Mg     tau(   5) = (  -0.1710407   1.1543881   0.9479482  )
         6        Mg     tau(   6) = (   0.3289593   0.8562226   0.9479482  )
         7        Mg     tau(   7) = (   0.3289593   1.4480089   0.9479482  )
         8        Mg     tau(   8) = (   0.3289593   0.2986375   0.9479482  )
         9        Si     tau(   9) = (   0.0066674   0.2865251   0.4219393  )
        10        Si     tau(  10) = (   0.6512512   0.2865251   1.4739571  )
        11        Si     tau(  11) = (   0.6701371   1.4476688   1.4628623  )
        12        Si     tau(  12) = (  -0.0122184   1.4476688   0.4330341  )
        13        Si     tau(  13) = (   0.4872056   1.1568454   0.4292651  )
        14        Si     tau(  14) = (   0.1707131   1.1568454   1.4666313  )
        15        Al     tau(  15) = (   0.1506005   0.5746762   1.4713786  )
        16        Al     tau(  16) = (   0.5073182   0.5746762   0.4245178  )
        17        O      tau(  17) = (  -0.0043508   0.2833738   0.7297400  )
        18        O      tau(  18) = (   0.6622695   0.2833738   1.1661564  )
        19        O      tau(  19) = (   0.6658139   1.4451231   1.1576912  )
        20        O      tau(  20) = (  -0.0078952   1.4451231   0.7382052  )
        21        O      tau(  21) = (   0.4926234   1.1618863   0.7357690  )
        22        O      tau(  22) = (   0.1652953   1.1618863   1.1601274  )
        23        O      tau(  23) = (   0.1548298   0.5779784   1.1454267  )
        24        O      tau(  24) = (   0.5030889   0.5779784   0.7504697  )
        25        O      tau(  25) = (   0.2847398   0.3548857   0.3143567  )
        26        O      tau(  26) = (   0.3731789   0.3548857   1.5815397  )
        27        O      tau(  27) = (   0.9404978   1.7303189   0.3181314  )
        28        O      tau(  28) = (  -0.2825791   1.7303189   1.5777650  )
        29        O      tau(  29) = (   0.3988927   1.3439356   1.5754330  )
        30        O      tau(  30) = (   0.2590260   1.3439356   0.3204634  )
        31        O      tau(  31) = (   0.7582660   1.2710892   0.3185125  )
        32        O      tau(  32) = (  -0.1003473   1.2710892   1.5773839  )
        33        O      tau(  33) = (   0.4432368   0.8811364   0.3085875  )
        34        O      tau(  34) = (   0.2146819   0.8811364   1.5873090  )
        35        O      tau(  35) = (  -0.1423236   0.4782556   1.5925436  )
        36        O      tau(  36) = (   0.8002423   0.4782556   0.3033529  )
        37        O      tau(  37) = (  -0.0041068   0.8750247   0.7469263  )
        38        O      tau(  38) = (   0.6620255   0.8750247   1.1489701  )
        39        O      tau(  39) = (   0.4966158   1.7335917   0.7534577  )
        40        O      tau(  40) = (   0.1613029   1.7335917   1.1424387  )
        41        H      tau(  41) = (  -0.0032097   0.8603995   0.5673129  )
        42        H      tau(  42) = (   0.6611284   0.8603995   1.3285835  )
        43        H      tau(  43) = (   0.4926802   0.0219534   0.5746291  )
        44        H      tau(  44) = (   0.1652385   0.0219534   1.3212673  )

     DFT-D3 Dispersion Correction (3-body terms):
       Reference C6 values for interpolation:

         atom   Coordination number   C6
         H          0.912             6.05
         H          0.000            15.18
         O          0.000            31.01
         O          0.993            25.63
[...]
     atom    2 type  3   force =     0.00000000    0.00000000    0.00000000
     atom    3 type  4   force =     0.00000000    0.00000000    0.00000000
     atom    4 type  4   force =     0.00000000    0.00000000    0.00000000
     atom    5 type  4   force =     0.00000000    0.00000000    0.00000000
     atom    6 type  4   force =     0.00000000    0.00000000    0.00000000
     atom    7 type  4   force =     0.00000000    0.00000000    0.00000000
     atom    8 type  4   force =     0.00000000    0.00000000    0.00000000
     atom    9 type  6   force =     0.00000000    0.00000000    0.00000000
     atom   10 type  6   force =     0.00000000    0.00000000    0.00000000
     atom   11 type  6   force =     0.00000000    0.00000000    0.00000000
     atom   12 type  6   force =     0.00000000    0.00000000    0.00000000
     atom   13 type  6   force =     0.00000000    0.00000000    0.00000000
     atom   14 type  6   force =     0.00000000    0.00000000    0.00000000
     atom   15 type  1   force =     0.00000000    0.00000000    0.00000000
     atom   16 type  1   force =     0.00000000    0.00000000    0.00000000
     atom   17 type  5   force =     0.00000000    0.00000000    0.00000000
     atom   18 type  5   force =     0.00000000    0.00000000    0.00000000
     atom   19 type  5   force =     0.00000000    0.00000000    0.00000000
     atom   20 type  5   force =     0.00000000    0.00000000    0.00000000
     atom   21 type  5   force =     0.00000000    0.00000000    0.00000000
     atom   22 type  5   force =     0.00000000    0.00000000    0.00000000
     atom   23 type  5   force =     0.00000000    0.00000000    0.00000000
     atom   24 type  5   force =     0.00000000    0.00000000    0.00000000
     atom   25 type  5   force =     0.00000000    0.00000000    0.00000000
     atom   26 type  5   force =     0.00000000    0.00000000    0.00000000
     atom   27 type  5   force =     0.00000000    0.00000000    0.00000000
     atom   28 type  5   force =     0.00000000    0.00000000    0.00000000
     atom   29 type  5   force =     0.00000000    0.00000000    0.00000000
     atom   30 type  5   force =     0.00000000    0.00000000    0.00000000
     atom   31 type  5   force =     0.00000000    0.00000000    0.00000000
     atom   32 type  5   force =     0.00000000    0.00000000    0.00000000
     atom   33 type  5   force =     0.00000000    0.00000000    0.00000000
     atom   34 type  5   force =     0.00000000    0.00000000    0.00000000
     atom   35 type  5   force =     0.00000000    0.00000000    0.00000000
     atom   36 type  5   force =     0.00000000    0.00000000    0.00000000
     atom   37 type  5   force =     0.00000000    0.00000000    0.00000000
     atom   38 type  5   force =     0.00000000    0.00000000    0.00000000
     atom   39 type  5   force =     0.00000000    0.00000000    0.00000000
     atom   40 type  5   force =     0.00000000    0.00000000    0.00000000
     atom   41 type  2   force =     0.00000000    0.00000000    0.00000000
     atom   42 type  2   force =     0.00000000    0.00000000    0.00000000
     atom   43 type  2   force =     0.00000000    0.00000000    0.00000000
     atom   44 type  2   force =     0.00000000    0.00000000    0.00000000
     The SCF correction term to forces
     atom    1 type  3   force =     0.00000000    0.00000374   -0.00000000
     atom    2 type  3   force =    -0.00000000   -0.00000348   -0.00000000
     atom    3 type  4   force =    -0.00000000    0.00001043   -0.00000000
     atom    4 type  4   force =    -0.00000000    0.00000582    0.00000000
     atom    5 type  4   force =    -0.00000000   -0.00001397    0.00000000
     atom    6 type  4   force =     0.00000000   -0.00001787    0.00000000
     atom    7 type  4   force =     0.00000000    0.00000432   -0.00000000
     atom    8 type  4   force =     0.00000000    0.00001146   -0.00000000
     atom    9 type  6   force =    -0.00000198   -0.00000679   -0.00001131
     atom   10 type  6   force =     0.00000198   -0.00000679    0.00001131
     atom   11 type  6   force =     0.00000403    0.00000484    0.00001726
     atom   12 type  6   force =    -0.00000403    0.00000484   -0.00001726
     atom   13 type  6   force =     0.00000343    0.00000235   -0.00001250
     atom   14 type  6   force =    -0.00000343    0.00000235    0.00001250
     atom   15 type  1   force =    -0.00000035   -0.00000065    0.00000401
     atom   16 type  1   force =     0.00000035   -0.00000065   -0.00000401
     atom   17 type  5   force =    -0.00000143    0.00000276   -0.00001411
     atom   18 type  5   force =     0.00000143    0.00000276    0.00001411
     atom   19 type  5   force =     0.00000030    0.00000134    0.00002013
     atom   20 type  5   force =    -0.00000030    0.00000134   -0.00002013
     atom   21 type  5   force =     0.00000283   -0.00000434   -0.00001508
     atom   22 type  5   force =    -0.00000283   -0.00000434    0.00001508
     atom   23 type  5   force =     0.00000008    0.00000117    0.00000676
     atom   24 type  5   force =    -0.00000008    0.00000117   -0.00000676
     atom   25 type  5   force =    -0.00000293   -0.00000147   -0.00001200
     atom   26 type  5   force =     0.00000293   -0.00000147    0.00001200
     atom   27 type  5   force =     0.00000187   -0.00000335   -0.00001707
     atom   28 type  5   force =    -0.00000187   -0.00000335    0.00001707
     atom   29 type  5   force =     0.00000113    0.00000287    0.00001366
     atom   30 type  5   force =    -0.00000113    0.00000287   -0.00001366
     atom   31 type  5   force =     0.00000136    0.00000871   -0.00001623
     atom   32 type  5   force =    -0.00000136    0.00000871    0.00001623
     atom   33 type  5   force =     0.00000330    0.00000412   -0.00001056
     atom   34 type  5   force =    -0.00000330    0.00000412    0.00001056
     atom   35 type  5   force =     0.00000179   -0.00000743    0.00000734
     atom   36 type  5   force =    -0.00000179   -0.00000743   -0.00000734
     atom   37 type  5   force =    -0.00000052   -0.00000398   -0.00001141
     atom   38 type  5   force =     0.00000052   -0.00000398    0.00001141
     atom   39 type  5   force =    -0.00000027    0.00000347   -0.00001626
     atom   40 type  5   force =     0.00000027    0.00000347    0.00001626
     atom   41 type  2   force =    -0.00000010   -0.00000013   -0.00000109
     atom   42 type  2   force =     0.00000010   -0.00000013    0.00000109
     atom   43 type  2   force =     0.00000015    0.00000029   -0.00000398
     atom   44 type  2   force =    -0.00000015    0.00000029    0.00000398

     DFT-D3 dispersion contribution to forces:
     atom    1 type  3   force =    -0.00000000    0.00056613    0.00000000
     atom    2 type  3   force =     0.00000000   -0.00040945    0.00000000
     atom    3 type  4   force =     0.00000000    0.00029798   -0.00000000
     atom    4 type  4   force =     0.00000000    0.00074007   -0.00000000
     atom    5 type  4   force =    -0.00000000   -0.00113113   -0.00000000
     atom    6 type  4   force =     0.00000000   -0.00059530    0.00000000
     atom    7 type  4   force =    -0.00000000    0.00111579    0.00000000
     atom    8 type  4   force =     0.00000000   -0.00023419   -0.00000000
     atom    9 type  6   force =     0.00005002   -0.00007564   -0.00030575
     atom   10 type  6   force =    -0.00005002   -0.00007564    0.00030575
     atom   11 type  6   force =     0.00005005    0.00006346    0.00025133
     atom   12 type  6   force =    -0.00005005    0.00006346   -0.00025133
     atom   13 type  6   force =    -0.00004173    0.00014930   -0.00023268
     atom   14 type  6   force =     0.00004173    0.00014930    0.00023268
     atom   15 type  1   force =     0.00003279    0.00005879   -0.00111146
     atom   16 type  1   force =    -0.00003279    0.00005879    0.00111146
     atom   17 type  5   force =    -0.00000354    0.00004833    0.00044425
     atom   18 type  5   force =     0.00000354    0.00004833   -0.00044425
     atom   19 type  5   force =    -0.00000114    0.00001394   -0.00035459
     atom   20 type  5   force =     0.00000114    0.00001394    0.00035459
     atom   21 type  5   force =    -0.00001325   -0.00005564    0.00038314
     atom   22 type  5   force =     0.00001325   -0.00005564   -0.00038314
     atom   23 type  5   force =    -0.00002359   -0.00001704    0.00009993
     atom   24 type  5   force =     0.00002359   -0.00001704   -0.00009993
     atom   25 type  5   force =    -0.00017034    0.00098056    0.00014548
     atom   26 type  5   force =     0.00017034    0.00098056   -0.00014548
     atom   27 type  5   force =     0.00080580    0.00006935    0.00017469
     atom   28 type  5   force =    -0.00080580    0.00006935   -0.00017469
     atom   29 type  5   force =     0.00042777   -0.00063716   -0.00012842
     atom   30 type  5   force =    -0.00042777   -0.00063716    0.00012842
     atom   31 type  5   force =    -0.00028532    0.00045843    0.00014916
     atom   32 type  5   force =     0.00028532    0.00045843   -0.00014916
     atom   33 type  5   force =     0.00087116   -0.00042615    0.00038534
     atom   34 type  5   force =    -0.00087116   -0.00042615   -0.00038534
     atom   35 type  5   force =     0.00061229   -0.00047676   -0.00035500
     atom   36 type  5   force =    -0.00061229   -0.00047676    0.00035500
     atom   37 type  5   force =    -0.00001448   -0.00005477   -0.00049416
     atom   38 type  5   force =     0.00001448   -0.00005477    0.00049416
     atom   39 type  5   force =     0.00001331    0.00005339   -0.00052447
     atom   40 type  5   force =    -0.00001331    0.00005339    0.00052447
     atom   41 type  2   force =     0.00001626    0.00009973   -0.00028707
     atom   42 type  2   force =    -0.00001626    0.00009973    0.00028707
     atom   43 type  2   force =     0.00008134   -0.00042709   -0.00026917
     atom   44 type  2   force =    -0.00008134   -0.00042709    0.00026917

     Total force =     0.003428     Total SCF correction =     0.000086

     DFT-D3 dispersion Force =     0.004317

     Computing stress (Cartesian axis) and pressure

          total   stress  (Ry/bohr**3)                   (kbar)     P=       15.39
   0.00010446   0.00000000  -0.00000381           15.37        0.00       -0.56
   0.00000000   0.00010800   0.00000000            0.00       15.89        0.00
  -0.00000381   0.00000000   0.00010133           -0.56        0.00       14.91

     kinetic stress (kbar)  19367.77      0.00     -5.31
                                0.00  19364.80      0.00
                               -5.31      0.00  19046.60

     local   stress (kbar) -34454.66      0.00    -33.85
                                0.00 -34221.17      0.00
                              -33.85      0.00  11777.22

     nonloc. stress (kbar)   5141.11      0.00     -0.38
                                0.00   5141.09      0.00
                               -0.38      0.00   5132.40

     hartree stress (kbar)  19166.02     -0.00     11.71
                               -0.00  19062.41      0.00
                               11.71      0.00  -3474.87

     exc-cor stress (kbar)  -2820.18     -0.00      0.05
                               -0.00  -2820.20      0.00
                                0.05      0.00  -2816.82

     corecor stress (kbar)  -1878.74      0.00      0.10
                                0.00  -1878.79     -0.00
                                0.10     -0.00  -1880.34

     ewald   stress (kbar)  -4490.13     -0.00     27.07
                               -0.00  -4616.35     -0.00
                               27.07     -0.00 -27757.26

     hubbard stress (kbar)      0.00      0.00      0.00
                                0.00      0.00      0.00
                                0.00      0.00      0.00

     DFT-D   stress (kbar)    -15.82     -0.00      0.04
                               -0.00    -15.90     -0.00
                                0.04     -0.00    -12.01

     XDM     stress (kbar)      0.00      0.00      0.00
                                0.00      0.00      0.00
                                0.00      0.00      0.00

     dft-nl  stress (kbar)      0.00      0.00      0.00
                                0.00      0.00      0.00
                                0.00      0.00      0.00

     TS-vdW  stress (kbar)      0.00      0.00      0.00
                                0.00      0.00      0.00
                                0.00      0.00      0.00

     MDB     stress (kbar)      0.00      0.00      0.00
                                0.00      0.00      0.00
                                0.00      0.00      0.00

     3D-RISM stress (kbar)      0.00      0.00      0.00
                                0.00      0.00      0.00
                                0.00      0.00      0.00

     Energy error            =      2.0E-05 Ry
     Gradient error          =      9.6E-04 Ry/Bohr

     bfgs converged in  10 scf cycles and   9 bfgs steps
     (criteria: energy <  1.0E-04 Ry, force <  1.0E-03 Ry/Bohr)

     End of BFGS Geometry Optimization

     Final energy             =   -2443.7022885451 Ry

     File ./temp/phl-fe0-dftd3.bfgs deleted, as requested
Begin final coordinates

ATOMIC_POSITIONS (crystal)
K                0.0000000000        0.4928576729        0.0000000000
K                0.5000000000        0.0047969131        0.0000000000
Mg              -0.0000000000        0.0042658554        0.5000000000
Mg              -0.0000000000        0.3332396222        0.5000000000
Mg              -0.0000000000        0.6651665053        0.5000000000
Mg               0.5000000000        0.4932172298        0.5000000000
Mg               0.5000000000        0.8345591536        0.5000000000
Mg               0.5000000000        0.1721908950        0.5000000000
Si               0.0832764521        0.1651013214        0.2220334798
Si               0.9167235339        0.1651013214        0.7779665502
Si               0.9346917617        0.8343420580        0.7715389067
Si               0.0653082383        0.8343420580        0.2284610933
Si               0.5638601133        0.6664656100        0.2262702821
Si               0.4361398867        0.6664656100        0.7737297029
Al               0.4154198727        0.3310902551        0.7760779857
Al               0.5845801273        0.3310902551        0.2239220143
O                0.1272460744        0.1636368377        0.3844599871
O                0.8727538956        0.1636368377        0.6155400419
O                0.8745783431        0.8331184530        0.6104476004
O                0.1254216569        0.8331184530        0.3895523996
O                0.6251585451        0.6689400783        0.3880525001
O                0.3748414549        0.6689400783        0.6119474999
O                0.3612412505        0.3329995440        0.6039226310
O                0.6387587495        0.3329995440        0.3960773690
O                0.3430573729        0.2026459111        0.1646552724
O                0.6569426271        0.2026459111        0.8353446976
O                0.9951858810        0.9972458589        0.1670788767
O                0.0048141190        0.9972458589        0.8329211083
O                0.6831640249        0.7752667184        0.8314383717
O                0.3168359751        0.7752667184        0.1685616283
O                0.8155047855        0.7319258113        0.1676041884
O                0.1844952145        0.7319258113        0.8323958116
O                0.4959707559        0.5077547485        0.1613919017
O                0.5040292141        0.5077547485        0.8386081133
O                0.1431857178        0.2768277916        0.8414919310
O                0.8568142972        0.2768277916        0.1585080690
O                0.1302505541        0.5041927170        0.3937162149
O                0.8697494609        0.5041927170        0.6062837851
O                0.6322521337        0.9992581632        0.3971824560
O                0.3677478663        0.9992581632        0.6028175140
H                0.0989133058        0.4951165442        0.2979959016
H                0.9010867242        0.4951165442        0.7020040984
H                0.5954154235        0.0139221811        0.3019556925
H                0.4045845765        0.0139221811        0.6980443075
End final coordinates

     Writing all to output data dir ./temp/phl-fe0-dftd3.save/ :
     XML data file, charge density, pseudopotentials, collected wavefunctions

     General routines

     Parallel routines

     PAW routines

   This run was terminated on:  12:47: 5  26Dec2024

   JOB DONE.