     Program PWSCF v.7.3.1 starts on 21May2025 at 11:11:38

     Waiting for input...
     Reading input from standard input

     Current dimensions of program PWSCF are:
     Max number of different atomic species (ntypx) = 10
     Max number of k-points (npk) =  40000
     Max angular momentum in pseudopotentials (lmaxx) =  4
     file Al.pbe-n-kjpaw_psl.1.0.0.UPF: wavefunction(s)  3S 3P renormalized
     file H.pbe-kjpaw_psl.1.0.0.UPF: wavefunction(s)  1S renormalized
     file K.pbe-spn-kjpaw_psl.1.0.0.UPF: wavefunction(s)  3S renormalized
     file Mg.pbe-spnl-kjpaw_psl.1.0.0.UPF: wavefunction(s)  2P renormalized
     file O.pbe-n-kjpaw_psl.1.0.0.UPF: wavefunction(s)  2S 2P renormalized
     file Si.pbe-n-kjpaw_psl.1.0.0.UPF: wavefunction(s)  3S 3P renormalized

     R & G space division:  proc/nbgrp/npool/nimage =       6
     Subspace diagonalization in iterative solution of the eigenvalue problem:
     a serial algorithm will be used

     Using Slab Decomposition

     bravais-lattice index     =          -12
     lattice parameter (alat)  =      10.0136  a.u.
     unit-cell volume          =    3303.4414 (a.u.)^3
     number of atoms/cell      =           44
     number of atomic types    =            6
     number of electrons       =       256.00
     number of Kohn-Sham states=          128
     kinetic-energy cutoff     =      65.0000  Ry
     charge density cutoff     =     520.0000  Ry
     scf convergence threshold =      1.0E-08
     mixing beta               =       0.7000
     number of iterations used =            8  plain     mixing
     energy convergence thresh.=      1.0E-05
     force convergence thresh. =      5.0E-04
     Exchange-correlation= SLA  PW   PBX  PBC
                           (   1   4   3   4   0   0   0)
     nstep                     =          100

     celldm(1)=  10.013640  celldm(2)=   1.735306  celldm(3)=   1.926511
     celldm(4)=   0.000000  celldm(5)=  -0.177565  celldm(6)=   0.000000

     crystal axes: (cart. coord. in units of alat)
               a(1) = (   1.000000   0.000000   0.000000 )
               a(2) = (   0.000000   1.735306   0.000000 )
               a(3) = (  -0.342081   0.000000   1.895896 )

     reciprocal axes: (cart. coord. in units 2 pi/alat)
               b(1) = (  1.000000 -0.000000  0.180432 )
               b(2) = (  0.000000  0.576267 -0.000000 )
               b(3) = (  0.000000  0.000000  0.527455 )

     PseudoPot. # 1 for Al read from file:
     ./../../pseudos/Al.pbe-n-kjpaw_psl.1.0.0.UPF
     MD5 check sum: 502b6b27b9c6270cab5dd1084b96fa6d
     Pseudo is Projector augmented-wave + core cor, Zval =  3.0
     Generated using &quot;atomic&quot; code by A. Dal Corso  v.6.3
     Shape of augmentation charge: PSQ
     Using radial grid of 1135 points,  6 beta functions with:
                l(1) =   0
                l(2) =   0
                l(3) =   1
                l(4) =   1
                l(5) =   2
                l(6) =   2
     Q(r) pseudized with 0 coefficients

     PseudoPot. # 2 for H  read from file:
     ./../../pseudos/H.pbe-kjpaw_psl.1.0.0.UPF
     MD5 check sum: d81a744832360e4a8af0b0b5b123bc2a
     Pseudo is Projector augmented-wave, Zval =  1.0
     Generated using &quot;atomic&quot; code by A. Dal Corso  v.6.3MaX
     Shape of augmentation charge: PSQ
     Using radial grid of  929 points,  2 beta functions with:
                l(1) =   0
                l(2) =   0
     Q(r) pseudized with 0 coefficients

     PseudoPot. # 3 for K  read from file:
     ./../../pseudos/K.pbe-spn-kjpaw_psl.1.0.0.UPF
     MD5 check sum: 34cc42130a09071ebe376fd42eb21491
     Pseudo is Projector augmented-wave + core cor, Zval =  9.0
     Generated using &quot;atomic&quot; code by A. Dal Corso  v.6.2.2
     Shape of augmentation charge: PSQ
     Using radial grid of 1165 points,  6 beta functions with:
                l(1) =   0
                l(2) =   0
                l(3) =   1
                l(4) =   1
                l(5) =   2
                l(6) =   2
     Q(r) pseudized with 0 coefficients

     PseudoPot. # 4 for Mg read from file:
     ./../../pseudos/Mg.pbe-spnl-kjpaw_psl.1.0.0.UPF
     MD5 check sum: fda14e0d92a6a9a5ebed782e5a4b3067
     Pseudo is Projector augmented-wave + core cor, Zval = 10.0
     Generated using &quot;atomic&quot; code by A. Dal Corso  v.6.3
     Shape of augmentation charge: PSQ
     Using radial grid of 1129 points,  4 beta functions with:
                l(1) =   0
                l(2) =   0
                l(3) =   1
                l(4) =   1
     Q(r) pseudized with 0 coefficients

     PseudoPot. # 5 for O  read from file:
     ./../../pseudos/O.pbe-n-kjpaw_psl.1.0.0.UPF
     MD5 check sum: e99d9cef9b487d1ca56f5b95ecd0fd7a
     Pseudo is Projector augmented-wave + core cor, Zval =  6.0
     Generated using &quot;atomic&quot; code by A. Dal Corso  v.6.3
     Shape of augmentation charge: PSQ
     Using radial grid of 1095 points,  4 beta functions with:
                l(1) =   0
                l(2) =   0
                l(3) =   1
                l(4) =   1
     Q(r) pseudized with 0 coefficients

     PseudoPot. # 6 for Si read from file:
     ./../../pseudos/Si.pbe-n-kjpaw_psl.1.0.0.UPF
     MD5 check sum: c39c59da582df4a0d9f10159256ea34e
     Pseudo is Projector augmented-wave + core cor, Zval =  4.0
     Generated using &quot;atomic&quot; code by A. Dal Corso  v.6.3
     Shape of augmentation charge: PSQ
     Using radial grid of 1141 points,  6 beta functions with:
                l(1) =   0
                l(2) =   0
                l(3) =   1
                l(4) =   1
                l(5) =   2
                l(6) =   2
     Q(r) pseudized with 0 coefficients

     atomic species   valence    mass     pseudopotential
     Al                3.00    26.98154     Al( 1.00)
     H                 1.00     1.00794     H ( 1.00)
     K                 9.00    39.09830     K ( 1.00)
     Mg               10.00    24.30500     Mg( 1.00)
     O                 6.00    15.99940     O ( 1.00)
     Si                4.00    28.08550     Si( 1.00)

      2 Sym. Ops. (no inversion) found

                                    s                        frac. trans.

      isym =  1     identity

 cryst.   s( 1) = (     1          0          0      )
                  (     0          1          0      )
                  (     0          0          1      )

 cart.    s( 1) = (  1.0000000  0.0000000 -0.0000000 )
                  (  0.0000000  1.0000000  0.0000000 )
                  (  0.0000000  0.0000000  1.0000000 )

      isym =  2     180 deg rotation - cart. axis [0,1,0]

 cryst.   s( 2) = (    -1          0          0      )
                  (     0          1          0      )
                  (     0          0         -1      )

 cart.    s( 2) = ( -1.0000000  0.0000000  0.0000000 )
                  (  0.0000000  1.0000000  0.0000000 )
                  (  0.0000000  0.0000000 -1.0000000 )

     point group C_2  (2)
     there are  2 classes
     the character table:

       E     C2
A      1.00  1.00
B      1.00 -1.00

     the symmetry operations in each class and the name of the first element:

     E        1
          identity
     C2       2
          180 deg rotation - cart. axis [0,1,0]

   Cartesian axes

     site n.     atom                  positions (alat units)
         1        K      tau(   1) = (   0.0000000   0.8559224   0.0000000  )
         2        K      tau(   2) = (   0.5000000   0.0093568   0.0000000  )
         3        Mg     tau(   3) = (  -0.1710407   0.0067712   0.9479482  )
         4        Mg     tau(   4) = (  -0.1710407   0.5780843   0.9479482  )
         5        Mg     tau(   5) = (  -0.1710407   1.1543881   0.9479482  )
         6        Mg     tau(   6) = (   0.3289593   0.8562226   0.9479482  )
         7        Mg     tau(   7) = (   0.3289593   1.4480089   0.9479482  )
         8        Mg     tau(   8) = (   0.3289593   0.2986375   0.9479482  )
         9        Si     tau(   9) = (   0.0066674   0.2865251   0.4219393  )
        10        Si     tau(  10) = (   0.6512512   0.2865251   1.4739571  )
        11        Si     tau(  11) = (   0.6701371   1.4476688   1.4628623  )
        12        Si     tau(  12) = (  -0.0122184   1.4476688   0.4330341  )
        13        Si     tau(  13) = (   0.4872056   1.1568454   0.4292651  )
        14        Si     tau(  14) = (   0.1707131   1.1568454   1.4666313  )
        15        Al     tau(  15) = (   0.1506005   0.5746762   1.4713786  )
        16        Al     tau(  16) = (   0.5073182   0.5746762   0.4245178  )
        17        O      tau(  17) = (  -0.0043508   0.2833738   0.7297400  )
        18        O      tau(  18) = (   0.6622695   0.2833738   1.1661564  )
        19        O      tau(  19) = (   0.6658139   1.4451231   1.1576912  )
        20        O      tau(  20) = (  -0.0078952   1.4451231   0.7382052  )
        21        O      tau(  21) = (   0.4926234   1.1618863   0.7357690  )
        22        O      tau(  22) = (   0.1652953   1.1618863   1.1601274  )
        23        O      tau(  23) = (   0.1548298   0.5779784   1.1454267  )
        24        O      tau(  24) = (   0.5030889   0.5779784   0.7504697  )
        25        O      tau(  25) = (   0.2847398   0.3548857   0.3143567  )
        26        O      tau(  26) = (   0.3731789   0.3548857   1.5815397  )
        27        O      tau(  27) = (   0.9404978   1.7303189   0.3181314  )
        28        O      tau(  28) = (  -0.2825791   1.7303189   1.5777650  )
        29        O      tau(  29) = (   0.3988927   1.3439356   1.5754330  )
        30        O      tau(  30) = (   0.2590260   1.3439356   0.3204634  )
        31        O      tau(  31) = (   0.7582660   1.2710892   0.3185125  )
        32        O      tau(  32) = (  -0.1003473   1.2710892   1.5773839  )
        33        O      tau(  33) = (   0.4432368   0.8811364   0.3085875  )
        34        O      tau(  34) = (   0.2146819   0.8811364   1.5873090  )
        35        O      tau(  35) = (  -0.1423236   0.4782556   1.5925436  )
        36        O      tau(  36) = (   0.8002423   0.4782556   0.3033529  )
        37        O      tau(  37) = (  -0.0041068   0.8750247   0.7469263  )
        38        O      tau(  38) = (   0.6620255   0.8750247   1.1489701  )
        39        O      tau(  39) = (   0.4966158   1.7335917   0.7534577  )
        40        O      tau(  40) = (   0.1613029   1.7335917   1.1424387  )
        41        H      tau(  41) = (  -0.0032097   0.8603995   0.5673129  )
        42        H      tau(  42) = (   0.6611284   0.8603995   1.3285835  )
        43        H      tau(  43) = (   0.4926802   0.0219534   0.5746291  )
        44        H      tau(  44) = (   0.1652385   0.0219534   1.3212673  )

     DFT-D3 Dispersion Correction (3-body terms):
       Reference C6 values for interpolation:

         atom   Coordination number   C6
         H          0.912             6.05
         H          0.000            15.18
         O          0.000            31.01
         O          0.993            25.63
         O          1.989            20.74
         Mg         0.000          1366.75
[...]
     atom   10 type  6   force =    -0.00243986    0.01050616   -0.00618245
     atom   11 type  6   force =     0.00034418    0.00334379   -0.01351333
     atom   12 type  6   force =    -0.00034418    0.00334379    0.01351333
     atom   13 type  6   force =    -0.00164085   -0.01175297    0.01066146
     atom   14 type  6   force =     0.00164086   -0.01175296   -0.01066151
     atom   15 type  1   force =    -0.00063788   -0.00218703   -0.01062155
     atom   16 type  1   force =     0.00063788   -0.00218703    0.01062155
     atom   17 type  5   force =    -0.00016776    0.00021937    0.00644476
     atom   18 type  5   force =     0.00016775    0.00021937   -0.00644476
     atom   19 type  5   force =    -0.00011220    0.00006599   -0.00697305
     atom   20 type  5   force =     0.00011220    0.00006599    0.00697305
     atom   21 type  5   force =     0.00008702   -0.00019754    0.00684208
     atom   22 type  5   force =    -0.00008702   -0.00019754   -0.00684208
     atom   23 type  5   force =     0.00008080    0.00005532   -0.00319786
     atom   24 type  5   force =    -0.00008080    0.00005532    0.00319786
     atom   25 type  5   force =     0.00470421   -0.00198277   -0.00578944
     atom   26 type  5   force =    -0.00470422   -0.00198276    0.00578941
     atom   27 type  5   force =    -0.00370642    0.00082632   -0.00709302
     atom   28 type  5   force =     0.00370643    0.00082632    0.00709301
     atom   29 type  5   force =    -0.00174388    0.00252262    0.00727437
     atom   30 type  5   force =     0.00174388    0.00252262   -0.00727437
     atom   31 type  5   force =     0.00101314   -0.00238843   -0.00745296
     atom   32 type  5   force =    -0.00101314   -0.00238843    0.00745296
     atom   33 type  5   force =    -0.00266538   -0.00348813   -0.00652159
     atom   34 type  5   force =     0.00266536   -0.00348813    0.00652161
     atom   35 type  5   force =     0.00096394    0.00433427    0.00643744
     atom   36 type  5   force =    -0.00096393    0.00433427   -0.00643744
     atom   37 type  5   force =    -0.00000872    0.00072135    0.01125807
     atom   38 type  5   force =     0.00000873    0.00072134   -0.01125807
     atom   39 type  5   force =     0.00011872   -0.00158651    0.01097590
     atom   40 type  5   force =    -0.00011872   -0.00158650   -0.01097587
     atom   41 type  2   force =     0.00000000    0.00000000    0.00000000
     atom   42 type  2   force =     0.00000000    0.00000000    0.00000000
     atom   43 type  2   force =     0.00000000    0.00000000    0.00000000
     atom   44 type  2   force =     0.00000000    0.00000000    0.00000000
     The Hubbard contrib.    to forces
     atom    1 type  3   force =     0.00000000    0.00000000    0.00000000
     atom    2 type  3   force =     0.00000000    0.00000000    0.00000000
     atom    3 type  4   force =     0.00000000    0.00000000    0.00000000
     atom    4 type  4   force =     0.00000000    0.00000000    0.00000000
     atom    5 type  4   force =     0.00000000    0.00000000    0.00000000
     atom    6 type  4   force =     0.00000000    0.00000000    0.00000000
     atom    7 type  4   force =     0.00000000    0.00000000    0.00000000
     atom    8 type  4   force =     0.00000000    0.00000000    0.00000000
     atom    9 type  6   force =     0.00000000    0.00000000    0.00000000
     atom   10 type  6   force =     0.00000000    0.00000000    0.00000000
     atom   11 type  6   force =     0.00000000    0.00000000    0.00000000
     atom   12 type  6   force =     0.00000000    0.00000000    0.00000000
     atom   13 type  6   force =     0.00000000    0.00000000    0.00000000
     atom   14 type  6   force =     0.00000000    0.00000000    0.00000000
     atom   15 type  1   force =     0.00000000    0.00000000    0.00000000
     atom   16 type  1   force =     0.00000000    0.00000000    0.00000000
     atom   17 type  5   force =     0.00000000    0.00000000    0.00000000
     atom   18 type  5   force =     0.00000000    0.00000000    0.00000000
     atom   19 type  5   force =     0.00000000    0.00000000    0.00000000
     atom   20 type  5   force =     0.00000000    0.00000000    0.00000000
     atom   21 type  5   force =     0.00000000    0.00000000    0.00000000
     atom   22 type  5   force =     0.00000000    0.00000000    0.00000000
     atom   23 type  5   force =     0.00000000    0.00000000    0.00000000
     atom   24 type  5   force =     0.00000000    0.00000000    0.00000000
     atom   25 type  5   force =     0.00000000    0.00000000    0.00000000
     atom   26 type  5   force =     0.00000000    0.00000000    0.00000000
     atom   27 type  5   force =     0.00000000    0.00000000    0.00000000
     atom   28 type  5   force =     0.00000000    0.00000000    0.00000000
     atom   29 type  5   force =     0.00000000    0.00000000    0.00000000
     atom   30 type  5   force =     0.00000000    0.00000000    0.00000000
     atom   31 type  5   force =     0.00000000    0.00000000    0.00000000
     atom   32 type  5   force =     0.00000000    0.00000000    0.00000000
     atom   33 type  5   force =     0.00000000    0.00000000    0.00000000
     atom   34 type  5   force =     0.00000000    0.00000000    0.00000000
     atom   35 type  5   force =     0.00000000    0.00000000    0.00000000
     atom   36 type  5   force =     0.00000000    0.00000000    0.00000000
     atom   37 type  5   force =     0.00000000    0.00000000    0.00000000
     atom   38 type  5   force =     0.00000000    0.00000000    0.00000000
     atom   39 type  5   force =     0.00000000    0.00000000    0.00000000
     atom   40 type  5   force =     0.00000000    0.00000000    0.00000000
     atom   41 type  2   force =     0.00000000    0.00000000    0.00000000
     atom   42 type  2   force =     0.00000000    0.00000000    0.00000000
     atom   43 type  2   force =     0.00000000    0.00000000    0.00000000
     atom   44 type  2   force =     0.00000000    0.00000000    0.00000000
     The SCF correction term to forces
     atom    1 type  3   force =     0.00000000   -0.00000091    0.00000000
     atom    2 type  3   force =    -0.00000000    0.00000275   -0.00000000
     atom    3 type  4   force =     0.00000000   -0.00000024    0.00000000
     atom    4 type  4   force =    -0.00000000   -0.00000769    0.00000000
     atom    5 type  4   force =    -0.00000000    0.00000909   -0.00000000
     atom    6 type  4   force =     0.00000000    0.00000254    0.00000000
     atom    7 type  4   force =    -0.00000000    0.00000310    0.00000000
     atom    8 type  4   force =     0.00000000   -0.00000247    0.00000000
     atom    9 type  6   force =     0.00000120    0.00000093   -0.00000166
     atom   10 type  6   force =    -0.00000120    0.00000093    0.00000166
     atom   11 type  6   force =     0.00000028   -0.00000028   -0.00000017
     atom   12 type  6   force =    -0.00000028   -0.00000028    0.00000017
     atom   13 type  6   force =     0.00000034   -0.00000119   -0.00000102
     atom   14 type  6   force =    -0.00000034   -0.00000119    0.00000102
     atom   15 type  1   force =     0.00000068   -0.00000011    0.00000146
     atom   16 type  1   force =    -0.00000068   -0.00000011   -0.00000146
     atom   17 type  5   force =     0.00000013   -0.00000039    0.00000219
     atom   18 type  5   force =    -0.00000013   -0.00000039   -0.00000219
     atom   19 type  5   force =     0.00000017    0.00000198    0.00000015
     atom   20 type  5   force =    -0.00000017    0.00000198   -0.00000015
     atom   21 type  5   force =    -0.00000208    0.00000103    0.00000103
     atom   22 type  5   force =     0.00000208    0.00000103   -0.00000103
     atom   23 type  5   force =     0.00000113   -0.00000179    0.00000195
     atom   24 type  5   force =    -0.00000113   -0.00000179   -0.00000195
     atom   25 type  5   force =    -0.00000211    0.00000220   -0.00000251
     atom   26 type  5   force =     0.00000211    0.00000220    0.00000251
     atom   27 type  5   force =     0.00000124    0.00000028   -0.00000343
     atom   28 type  5   force =    -0.00000124    0.00000028    0.00000343
     atom   29 type  5   force =     0.00000056    0.00000254    0.00000121
     atom   30 type  5   force =    -0.00000056    0.00000254   -0.00000121
     atom   31 type  5   force =     0.00000380   -0.00000314   -0.00000155
     atom   32 type  5   force =    -0.00000380   -0.00000314    0.00000155
     atom   33 type  5   force =    -0.00000080    0.00000014   -0.00000356
     atom   34 type  5   force =     0.00000080    0.00000014    0.00000356
     atom   35 type  5   force =    -0.00000068   -0.00000079    0.00000386
     atom   36 type  5   force =     0.00000068   -0.00000079   -0.00000386
     atom   37 type  5   force =     0.00000221   -0.00000176   -0.00000621
     atom   38 type  5   force =    -0.00000221   -0.00000176    0.00000621
     atom   39 type  5   force =     0.00000099   -0.00000110    0.00000130
     atom   40 type  5   force =    -0.00000099   -0.00000110   -0.00000130
     atom   41 type  2   force =     0.00000020   -0.00000019   -0.00000134
     atom   42 type  2   force =    -0.00000020   -0.00000019    0.00000134
     atom   43 type  2   force =    -0.00000001   -0.00000002    0.00000000
     atom   44 type  2   force =     0.00000001   -0.00000002   -0.00000000

     DFT-D3 dispersion contribution to forces:
     atom    1 type  3   force =    -0.00000000    0.00053427    0.00000000
     atom    2 type  3   force =     0.00000000   -0.00030167    0.00000000
     atom    3 type  4   force =     0.00000000    0.00029294   -0.00000000
     atom    4 type  4   force =     0.00000000    0.00072154   -0.00000000
     atom    5 type  4   force =    -0.00000000   -0.00112951   -0.00000000
     atom    6 type  4   force =     0.00000000   -0.00061112    0.00000000
     atom    7 type  4   force =    -0.00000000    0.00113236    0.00000000
     atom    8 type  4   force =     0.00000000   -0.00020593   -0.00000000
     atom    9 type  6   force =     0.00005156   -0.00007841   -0.00029910
     atom   10 type  6   force =    -0.00005156   -0.00007841    0.00029910
     atom   11 type  6   force =     0.00005915    0.00006690    0.00024502
     atom   12 type  6   force =    -0.00005915    0.00006690   -0.00024502
     atom   13 type  6   force =    -0.00004407    0.00015871   -0.00022542
     atom   14 type  6   force =     0.00004407    0.00015871    0.00022542
     atom   15 type  1   force =     0.00003437    0.00005159   -0.00108617
     atom   16 type  1   force =    -0.00003437    0.00005159    0.00108617
     atom   17 type  5   force =    -0.00000498    0.00004684    0.00044787
     atom   18 type  5   force =     0.00000498    0.00004684   -0.00044788
     atom   19 type  5   force =    -0.00000218    0.00001235   -0.00034758
     atom   20 type  5   force =     0.00000218    0.00001235    0.00034758
     atom   21 type  5   force =    -0.00001341   -0.00005510    0.00037253
     atom   22 type  5   force =     0.00001341   -0.00005510   -0.00037253
     atom   23 type  5   force =    -0.00002143   -0.00001473    0.00009312
     atom   24 type  5   force =     0.00002143   -0.00001473   -0.00009312
     atom   25 type  5   force =    -0.00018353    0.00101638    0.00012456
     atom   26 type  5   force =     0.00018353    0.00101638   -0.00012456
     atom   27 type  5   force =     0.00080581    0.00007591    0.00017081
     atom   28 type  5   force =    -0.00080581    0.00007591   -0.00017080
     atom   29 type  5   force =     0.00043265   -0.00063208   -0.00015203
     atom   30 type  5   force =    -0.00043265   -0.00063208    0.00015203
     atom   31 type  5   force =    -0.00027669    0.00043566    0.00018317
     atom   32 type  5   force =     0.00027669    0.00043566   -0.00018317
     atom   33 type  5   force =     0.00087896   -0.00042679    0.00037995
     atom   34 type  5   force =    -0.00087896   -0.00042679   -0.00037995
     atom   35 type  5   force =     0.00063714   -0.00051994   -0.00032845
     atom   36 type  5   force =    -0.00063714   -0.00051994    0.00032845
     atom   37 type  5   force =    -0.00001675   -0.00005249   -0.00050146
     atom   38 type  5   force =     0.00001675   -0.00005249    0.00050146
     atom   39 type  5   force =     0.00001193    0.00004815   -0.00053123
     atom   40 type  5   force =    -0.00001193    0.00004815    0.00053123
     atom   41 type  2   force =     0.00001214    0.00012776   -0.00030052
     atom   42 type  2   force =    -0.00001214    0.00012776    0.00030052
     atom   43 type  2   force =     0.00010249   -0.00047714   -0.00025782
     atom   44 type  2   force =    -0.00010249   -0.00047714    0.00025782

     Total force =     0.001909     Total SCF correction =     0.000023

     DFT-D3 dispersion Force =     0.004334
     Energy error            =      6.7E-06 Ry
     Gradient error          =      4.3E-04 Ry/Bohr

     bfgs converged in  17 scf cycles and  16 bfgs steps
     (criteria: energy <  1.0E-05 Ry, force <  5.0E-04 Ry/Bohr)

     End of BFGS Geometry Optimization

     Final energy             =   -2443.7162081724 Ry

     File ./temp/phl-fe0-dftd3.bfgs deleted, as requested
Begin final coordinates

ATOMIC_POSITIONS (crystal)
K                0.0000000000        0.4941137688        0.0000000000
K                0.5000000000        0.0023605060        0.0000000000
Mg              -0.0000000000        0.0043993711        0.5000000000
Mg              -0.0000000000        0.3333224399        0.5000000000
Mg              -0.0000000000        0.6653312841        0.5000000000
Mg               0.5000000000        0.4929817611        0.5000000000
Mg               0.5000000000        0.8347745120        0.5000000000
Mg               0.5000000000        0.1723499624        0.5000000000
Si               0.0839851963        0.1650783316        0.2221111388
Si               0.9160147897        0.1650783316        0.7778888912
Si               0.9354743662        0.8343248611        0.7714397986
Si               0.0645256338        0.8343248611        0.2285602014
Si               0.5631324965        0.6664053002        0.2264981074
Si               0.4368675035        0.6664053002        0.7735018776
Al               0.4148704893        0.3309372309        0.7761827627
Al               0.5851295107        0.3309372309        0.2238172373
O                0.1275208216        0.1638019091        0.3845239750
O                0.8724791484        0.1638019091        0.6154760540
O                0.8750814258        0.8332179162        0.6103943177
O                0.1249185742        0.8332179162        0.3896056823
O                0.6248676998        0.6690923006        0.3882391919
O                0.3751323002        0.6690923006        0.6117608081
O                0.3611099265        0.3328971734        0.6039942394
O                0.6388900735        0.3328971734        0.3960057606
O                0.3446805697        0.2014268262        0.1649026644
O                0.6553194303        0.2014268262        0.8350973056
O                0.9942700364        0.9973046511        0.1672812994
O                0.0057299636        0.9973046511        0.8327186856
O                0.6838375128        0.7752915361        0.8313451507
O                0.3161624872        0.7752915361        0.1686548493
O                0.8149600163        0.7316529748        0.1677111335
O                0.1850399837        0.7316529748        0.8322888665
O                0.4948280126        0.5076850681        0.1616252697
O                0.5051719574        0.5076850681        0.8383747453
O                0.1413001875        0.2777306608        0.8412512695
O                0.8586998275        0.2777306608        0.1587487305
O                0.1305324713        0.5041354097        0.3941318788
O                0.8694675437        0.5041354097        0.6058681212
O                0.6325219990        0.9994565880        0.3975590587
O                0.3674780010        0.9994565880        0.6024409113
H                0.0992806369        0.4941553029        0.2985073483
H                0.9007193931        0.4941553029        0.7014926517
H                0.5946079973        0.0155866830        0.3025603303
H                0.4053920027        0.0155866830        0.6974396697
End final coordinates

     Writing all to output data dir ./temp/phl-fe0-dftd3.save/ :
     XML data file, charge density, pseudopotentials, collected wavefunctions

     General routines

     Parallel routines

     PAW routines

   This run was terminated on:   8:40:49  22May2025

   JOB DONE.