     Program PWSCF v.7.3.1 starts on 12Mar2025 at 21: 9:22

     Reading input from vc_relax.in

     Current dimensions of program PWSCF are:
     Max number of different atomic species (ntypx) = 10
     Max number of k-points (npk) =  40000
     Max angular momentum in pseudopotentials (lmaxx) =  4
     file Al.pbe-n-kjpaw_psl.1.0.0.UPF: wavefunction(s)  3S 3P renormalized
     file Ti.pbe-spn-kjpaw_psl.1.0.0.UPF: wavefunction(s)  3S 3P 3D renormalized
     file H.pbe-kjpaw_psl.1.0.0.UPF: wavefunction(s)  1S renormalized
     file K.pbe-spn-kjpaw_psl.1.0.0.UPF: wavefunction(s)  3S renormalized
     file Mg.pbe-spnl-kjpaw_psl.1.0.0.UPF: wavefunction(s)  2P renormalized
     file O.pbe-n-kjpaw_psl.1.0.0.UPF: wavefunction(s)  2S 2P renormalized
     file Si.pbe-n-kjpaw_psl.1.0.0.UPF: wavefunction(s)  3S 3P renormalized

     R & G space division:  proc/nbgrp/npool/nimage =       6
     Subspace diagonalization in iterative solution of the eigenvalue problem:
     a serial algorithm will be used

     Using Slab Decomposition

     bravais-lattice index     =          -12
     lattice parameter (alat)  =      10.0136  a.u.
     unit-cell volume          =    3303.4414 (a.u.)^3
     number of atoms/cell      =           43
     number of atomic types    =            7
     number of electrons       =       248.00
     number of Kohn-Sham states=          149
     kinetic-energy cutoff     =      60.0000  Ry
     charge density cutoff     =     480.0000  Ry
     scf convergence threshold =      1.0E-06
     mixing beta               =       0.7000
     number of iterations used =            8  plain     mixing
     energy convergence thresh.=      1.0E-04
     force convergence thresh. =      1.0E-03
     press convergence thresh. =      5.0E-01
     Exchange-correlation= SLA  PW   PBX  PBC
                           (   1   4   3   4   0   0   0)
     nstep                     =           50

     celldm(1)=  10.013640  celldm(2)=   1.735306  celldm(3)=   1.926511
     celldm(4)=   0.000000  celldm(5)=  -0.177565  celldm(6)=   0.000000

     crystal axes: (cart. coord. in units of alat)
               a(1) = (   1.000000   0.000000   0.000000 )
               a(2) = (   0.000000   1.735306   0.000000 )
               a(3) = (  -0.342081   0.000000   1.895896 )

     reciprocal axes: (cart. coord. in units 2 pi/alat)
               b(1) = (  1.000000 -0.000000  0.180432 )
               b(2) = (  0.000000  0.576267 -0.000000 )
               b(3) = (  0.000000  0.000000  0.527455 )

     PseudoPot. # 1 for Al read from file:
     ./../../../pseudos/Al.pbe-n-kjpaw_psl.1.0.0.UPF
     MD5 check sum: 502b6b27b9c6270cab5dd1084b96fa6d
     Pseudo is Projector augmented-wave + core cor, Zval =  3.0
     Generated using &quot;atomic&quot; code by A. Dal Corso  v.6.3
     Shape of augmentation charge: PSQ
     Using radial grid of 1135 points,  6 beta functions with:
                l(1) =   0
                l(2) =   0
                l(3) =   1
                l(4) =   1
                l(5) =   2
                l(6) =   2
     Q(r) pseudized with 0 coefficients

     PseudoPot. # 2 for Ti read from file:
     ./../../../pseudos/Ti.pbe-spn-kjpaw_psl.1.0.0.UPF
     MD5 check sum: 01f69b0d8ba4438b2e03ac6ea4af1c0b
     Pseudo is Projector augmented-wave + core cor, Zval = 12.0
     Generated using &quot;atomic&quot; code by A. Dal Corso  v.6.2.2
     Shape of augmentation charge: PSQ
     Using radial grid of 1177 points,  6 beta functions with:
                l(1) =   0
                l(2) =   0
                l(3) =   1
                l(4) =   1
                l(5) =   2
                l(6) =   2
     Q(r) pseudized with 0 coefficients

     PseudoPot. # 3 for H  read from file:
     ./../../../pseudos/H.pbe-kjpaw_psl.1.0.0.UPF
     MD5 check sum: d81a744832360e4a8af0b0b5b123bc2a
     Pseudo is Projector augmented-wave, Zval =  1.0
     Generated using &quot;atomic&quot; code by A. Dal Corso  v.6.3MaX
     Shape of augmentation charge: PSQ
     Using radial grid of  929 points,  2 beta functions with:
                l(1) =   0
                l(2) =   0
     Q(r) pseudized with 0 coefficients

     PseudoPot. # 4 for K  read from file:
     ./../../../pseudos/K.pbe-spn-kjpaw_psl.1.0.0.UPF
     MD5 check sum: 34cc42130a09071ebe376fd42eb21491
     Pseudo is Projector augmented-wave + core cor, Zval =  9.0
     Generated using &quot;atomic&quot; code by A. Dal Corso  v.6.2.2
     Shape of augmentation charge: PSQ
     Using radial grid of 1165 points,  6 beta functions with:
                l(1) =   0
                l(2) =   0
                l(3) =   1
                l(4) =   1
                l(5) =   2
                l(6) =   2
     Q(r) pseudized with 0 coefficients

     PseudoPot. # 5 for Mg read from file:
     ./../../../pseudos/Mg.pbe-spnl-kjpaw_psl.1.0.0.UPF
     MD5 check sum: fda14e0d92a6a9a5ebed782e5a4b3067
     Pseudo is Projector augmented-wave + core cor, Zval = 10.0
     Generated using &quot;atomic&quot; code by A. Dal Corso  v.6.3
     Shape of augmentation charge: PSQ
     Using radial grid of 1129 points,  4 beta functions with:
                l(1) =   0
                l(2) =   0
                l(3) =   1
                l(4) =   1
     Q(r) pseudized with 0 coefficients

     PseudoPot. # 6 for O  read from file:
     ./../../../pseudos/O.pbe-n-kjpaw_psl.1.0.0.UPF
     MD5 check sum: e99d9cef9b487d1ca56f5b95ecd0fd7a
     Pseudo is Projector augmented-wave + core cor, Zval =  6.0
     Generated using &quot;atomic&quot; code by A. Dal Corso  v.6.3
     Shape of augmentation charge: PSQ
     Using radial grid of 1095 points,  4 beta functions with:
                l(1) =   0
                l(2) =   0
                l(3) =   1
                l(4) =   1
     Q(r) pseudized with 0 coefficients

     PseudoPot. # 7 for Si read from file:
     ./../../../pseudos/Si.pbe-n-kjpaw_psl.1.0.0.UPF
     MD5 check sum: c39c59da582df4a0d9f10159256ea34e
     Pseudo is Projector augmented-wave + core cor, Zval =  4.0
     Generated using &quot;atomic&quot; code by A. Dal Corso  v.6.3
     Shape of augmentation charge: PSQ
     Using radial grid of 1141 points,  6 beta functions with:
                l(1) =   0
                l(2) =   0
                l(3) =   1
                l(4) =   1
                l(5) =   2
                l(6) =   2
     Q(r) pseudized with 0 coefficients

     atomic species   valence    mass     pseudopotential
     Al                3.00    26.98154     Al( 1.00)
     Ti               12.00    47.86700     Ti( 1.00)
     H                 1.00     1.00794     H ( 1.00)
     K                 9.00    39.09830     K ( 1.00)
     Mg               10.00    24.30500     Mg( 1.00)
     O                 6.00    15.99940     O ( 1.00)
     Si                4.00    28.08550     Si( 1.00)

     Starting magnetic structure
     atomic species   magnetization
     Al              0.000
     Ti              0.300
     H               0.000
     K               0.000
     Mg              0.000
     O               0.000
     Si              0.000

      2 Sym. Ops. (no inversion) found

                                    s                        frac. trans.

      isym =  1     identity

 cryst.   s( 1) = (     1          0          0      )
                  (     0          1          0      )
                  (     0          0          1      )

 cart.    s( 1) = (  1.0000000  0.0000000 -0.0000000 )
                  (  0.0000000  1.0000000  0.0000000 )
                  (  0.0000000  0.0000000  1.0000000 )

      isym =  2     180 deg rotation - cart. axis [0,1,0]

[...]

     point group C_2  (2)
     there are  2 classes
     the character table:

       E     C2
A      1.00  1.00
B      1.00 -1.00

     the symmetry operations in each class and the name of the first element:

     E        1
          identity
     C2       2
          180 deg rotation - cart. axis [0,1,0]

   Cartesian axes

     site n.     atom                  positions (alat units)
         1        K      tau(   1) = (   0.0000000   0.8770766   0.0000000  )
         2        K      tau(   2) = (   0.5000000   1.7168817   0.0000000  )
         3        Mg     tau(   3) = (  -0.1710407   1.1336907   0.9479482  )
         4        Mg     tau(   4) = (   0.3289593   0.8568649   0.9479482  )
         5        Mg     tau(   5) = (   0.3289593   1.4431476   0.9479482  )
         6        Mg     tau(   6) = (   0.3289593   0.3365003   0.9479482  )
         7        Si     tau(   7) = (   0.0153383   0.2791051   0.4041606  )
         8        Si     tau(   8) = (   0.6425804   0.2791051   1.4917359  )
         9        Si     tau(   9) = (   0.6793433   1.4452276   1.4636366  )
        10        Si     tau(  10) = (  -0.0214245   1.4452276   0.4322598  )
        11        Si     tau(  11) = (   0.4807714   1.1515974   0.4314055  )
        12        Si     tau(  12) = (   0.1771473   1.1515974   1.4644909  )
        13        Al     tau(  13) = (   0.1403586   0.5793340   1.4697011  )
        14        Al     tau(  14) = (   0.5175600   0.5793340   0.4261954  )
        15        O      tau(  15) = (  -0.0060867   0.2518546   0.7190614  )
        16        O      tau(  16) = (   0.6640053   0.2518546   1.1768351  )
        17        O      tau(  17) = (   0.6752576   1.4711312   1.1530713  )
        18        O      tau(  18) = (  -0.0173389   1.4711312   0.7428251  )
        19        O      tau(  19) = (   0.4936237   1.1728525   0.7368423  )
        20        O      tau(  20) = (   0.1642950   1.1728525   1.1590541  )
        21        O      tau(  21) = (   0.1548378   0.5844143   1.1481103  )
        22        O      tau(  22) = (   0.5030810   0.5844143   0.7477861  )
        23        O      tau(  23) = (   0.3025887   0.3385028   0.3206591  )
        24        O      tau(  24) = (   0.3553300   0.3385028   1.5752372  )
        25        O      tau(  25) = (  -0.0538757   1.7262347   0.3029717  )
        26        O      tau(  26) = (   0.7117944   1.7262347   1.5929246  )
        27        O      tau(  27) = (   0.4122577   1.3331803   1.5702914  )
        28        O      tau(  28) = (   0.2456610   1.3331803   0.3256050  )
        29        O      tau(  29) = (   0.7389506   1.2908437   0.3164991  )
        30        O      tau(  30) = (  -0.0810319   1.2908437   1.5793973  )
        31        O      tau(  31) = (   0.4605311   0.8807831   0.2961238  )
        32        O      tau(  32) = (   0.1973875   0.8807831   1.5997725  )
        33        O      tau(  33) = (  -0.1524469   0.4744137   1.5977508  )
        34        O      tau(  34) = (   0.8103656   0.4744137   0.2981456  )
        35        O      tau(  35) = (   0.0192536   0.9181743   0.7107629  )
        36        O      tau(  36) = (   0.6386652   0.9181743   1.1851336  )
        37        O      tau(  37) = (   0.5058364   0.0113467   0.7580720  )
        38        O      tau(  38) = (   0.1520824   0.0113467   1.1378244  )
        39        H      tau(  39) = (  -0.0777899   0.7618795   0.7057584  )
        40        H      tau(  40) = (   0.7357087   0.7618795   1.1901380  )
[...]
     atom   40 type  3   force =    -1.69679161    3.05965677   -1.60321944
     atom   41 type  3   force =     0.22922596   -0.81235345    4.99442392
     atom   42 type  3   force =    -0.22922682   -0.81235339   -4.99442380
     atom   43 type  2   force =    -0.00000000   -5.11570911    0.00000000
     The core correction contribution to forces
     atom    1 type  4   force =    -0.00000000   -0.00093145    0.00000000
     atom    2 type  4   force =     0.00000000    0.00102786   -0.00000000
     atom    3 type  5   force =     0.00000000   -0.00160823   -0.00000000
     atom    4 type  5   force =    -0.00000000   -0.00101827   -0.00000000
     atom    5 type  5   force =    -0.00000000   -0.00070846    0.00000000
     atom    6 type  5   force =    -0.00000000    0.00210700   -0.00000000
     atom    7 type  7   force =     0.00088542    0.00903803   -0.00580098
     atom    8 type  7   force =    -0.00088552    0.00903804    0.00580104
     atom    9 type  7   force =     0.00095467    0.00254972   -0.00210913
     atom   10 type  7   force =    -0.00095465    0.00254972    0.00210909
     atom   11 type  7   force =     0.00173101   -0.00974957    0.00860656
     atom   12 type  7   force =    -0.00173101   -0.00974956   -0.00860660
     atom   13 type  1   force =    -0.00045817    0.00008165   -0.01659412
     atom   14 type  1   force =     0.00045816    0.00008165    0.01659419
     atom   15 type  6   force =    -0.00026253    0.00210569    0.00551949
     atom   16 type  6   force =     0.00026251    0.00210568   -0.00551948
     atom   17 type  6   force =    -0.00016905   -0.00094556   -0.00642090
     atom   18 type  6   force =     0.00016904   -0.00094556    0.00642090
     atom   19 type  6   force =     0.00043988   -0.00027250    0.00679122
     atom   20 type  6   force =    -0.00043988   -0.00027250   -0.00679122
     atom   21 type  6   force =    -0.00227367    0.00073228   -0.00442503
     atom   22 type  6   force =     0.00227369    0.00073228    0.00442503
     atom   23 type  6   force =     0.00580908   -0.00167530   -0.00499172
     atom   24 type  6   force =    -0.00580908   -0.00167529    0.00499167
     atom   25 type  6   force =    -0.00306638    0.00007049   -0.00760523
     atom   26 type  6   force =     0.00306639    0.00007050    0.00760520
     atom   27 type  6   force =    -0.00176513    0.00165978    0.00716922
     atom   28 type  6   force =     0.00176513    0.00165978   -0.00716922
     atom   29 type  6   force =    -0.00030351   -0.00108189   -0.00770087
     atom   30 type  6   force =     0.00030351   -0.00108189    0.00770087
     atom   31 type  6   force =    -0.00142287   -0.00342040   -0.00715791
     atom   32 type  6   force =     0.00142284   -0.00342040    0.00715790
     atom   33 type  6   force =     0.00180564    0.00482595    0.00607322
     atom   34 type  6   force =    -0.00180564    0.00482595   -0.00607324
     atom   35 type  6   force =     0.00729969    0.00978377   -0.00255536
     atom   36 type  6   force =    -0.00729969    0.00978378    0.00255540
     atom   37 type  6   force =    -0.00154711   -0.00292395    0.01001915
     atom   38 type  6   force =     0.00154712   -0.00292394   -0.01001914
     atom   39 type  3   force =     0.00000000    0.00000000    0.00000000
     atom   40 type  3   force =     0.00000000    0.00000000    0.00000000
     atom   41 type  3   force =     0.00000000    0.00000000    0.00000000
     atom   42 type  3   force =     0.00000000    0.00000000    0.00000000
     atom   43 type  2   force =    -0.00000000   -0.00617992    0.00000000
     The Hubbard contrib.    to forces
     atom    1 type  4   force =     0.00000000    0.00000000    0.00000000
     atom    2 type  4   force =     0.00000000    0.00000000    0.00000000
     atom    3 type  5   force =     0.00000000    0.00000000    0.00000000
     atom    4 type  5   force =     0.00000000    0.00000000    0.00000000
     atom    5 type  5   force =     0.00000000    0.00000000    0.00000000
     atom    6 type  5   force =     0.00000000    0.00000000    0.00000000
     atom    7 type  7   force =     0.00000000    0.00000000    0.00000000
     atom    8 type  7   force =     0.00000000    0.00000000    0.00000000
     atom    9 type  7   force =     0.00000000    0.00000000    0.00000000
     atom   10 type  7   force =     0.00000000    0.00000000    0.00000000
     atom   11 type  7   force =     0.00000000    0.00000000    0.00000000
     atom   12 type  7   force =     0.00000000    0.00000000    0.00000000
     atom   13 type  1   force =     0.00000000    0.00000000    0.00000000
     atom   14 type  1   force =     0.00000000    0.00000000    0.00000000
     atom   15 type  6   force =     0.00000000    0.00000000    0.00000000
     atom   16 type  6   force =     0.00000000    0.00000000    0.00000000
     atom   17 type  6   force =     0.00000000    0.00000000    0.00000000
     atom   18 type  6   force =     0.00000000    0.00000000    0.00000000
     atom   19 type  6   force =     0.00000000    0.00000000    0.00000000
     atom   20 type  6   force =     0.00000000    0.00000000    0.00000000
     atom   21 type  6   force =     0.00000000    0.00000000    0.00000000
     atom   22 type  6   force =     0.00000000    0.00000000    0.00000000
     atom   23 type  6   force =     0.00000000    0.00000000    0.00000000
     atom   24 type  6   force =     0.00000000    0.00000000    0.00000000
     atom   25 type  6   force =     0.00000000    0.00000000    0.00000000
     atom   26 type  6   force =     0.00000000    0.00000000    0.00000000
     atom   27 type  6   force =     0.00000000    0.00000000    0.00000000
     atom   28 type  6   force =     0.00000000    0.00000000    0.00000000
     atom   29 type  6   force =     0.00000000    0.00000000    0.00000000
     atom   30 type  6   force =     0.00000000    0.00000000    0.00000000
     atom   31 type  6   force =     0.00000000    0.00000000    0.00000000
     atom   32 type  6   force =     0.00000000    0.00000000    0.00000000
     atom   33 type  6   force =     0.00000000    0.00000000    0.00000000
     atom   34 type  6   force =     0.00000000    0.00000000    0.00000000
     atom   35 type  6   force =     0.00000000    0.00000000    0.00000000
     atom   36 type  6   force =     0.00000000    0.00000000    0.00000000
     atom   37 type  6   force =     0.00000000    0.00000000    0.00000000
     atom   38 type  6   force =     0.00000000    0.00000000    0.00000000
     atom   39 type  3   force =     0.00000000    0.00000000    0.00000000
     atom   40 type  3   force =     0.00000000    0.00000000    0.00000000
     atom   41 type  3   force =     0.00000000    0.00000000    0.00000000
     atom   42 type  3   force =     0.00000000    0.00000000    0.00000000
     atom   43 type  2   force =     0.00000000    0.00000000    0.00000000
     The SCF correction term to forces
     atom    1 type  4   force =    -0.00000000   -0.00001739    0.00000000
     atom    2 type  4   force =     0.00000000    0.00000841    0.00000000
     atom    3 type  5   force =    -0.00000000   -0.00003768   -0.00000000
     atom    4 type  5   force =     0.00000000   -0.00003314   -0.00000000
     atom    5 type  5   force =     0.00000000   -0.00005203   -0.00000000
     atom    6 type  5   force =     0.00000000    0.00006997   -0.00000000
     atom    7 type  7   force =     0.00000142    0.00000972    0.00000414
     atom    8 type  7   force =    -0.00000142    0.00000972   -0.00000414
     atom    9 type  7   force =    -0.00000139   -0.00000594   -0.00000741
     atom   10 type  7   force =     0.00000139   -0.00000594    0.00000741
     atom   11 type  7   force =    -0.00000022   -0.00001061    0.00000428
     atom   12 type  7   force =     0.00000022   -0.00001061   -0.00000428
     atom   13 type  1   force =     0.00000091    0.00000437   -0.00001148
     atom   14 type  1   force =    -0.00000091    0.00000437    0.00001148
     atom   15 type  6   force =     0.00001188    0.00004199   -0.00004400
     atom   16 type  6   force =    -0.00001188    0.00004199    0.00004400
     atom   17 type  6   force =    -0.00000694   -0.00003890    0.00002487
     atom   18 type  6   force =     0.00000694   -0.00003890   -0.00002487
     atom   19 type  6   force =     0.00000130   -0.00002009   -0.00000759
     atom   20 type  6   force =    -0.00000130   -0.00002009    0.00000759
     atom   21 type  6   force =    -0.00000487    0.00002589   -0.00000229
     atom   22 type  6   force =     0.00000487    0.00002589    0.00000229
     atom   23 type  6   force =    -0.00001512    0.00001262    0.00001036
     atom   24 type  6   force =     0.00001512    0.00001262   -0.00001036
     atom   25 type  6   force =     0.00000766    0.00001409    0.00001412
     atom   26 type  6   force =    -0.00000766    0.00001409   -0.00001412
     atom   27 type  6   force =    -0.00000351   -0.00001272   -0.00001710
     atom   28 type  6   force =     0.00000351   -0.00001272    0.00001710
     atom   29 type  6   force =    -0.00000616   -0.00001352    0.00001769
     atom   30 type  6   force =     0.00000616   -0.00001352   -0.00001769
     atom   31 type  6   force =     0.00000150   -0.00000139    0.00001721
     atom   32 type  6   force =    -0.00000150   -0.00000139   -0.00001721
     atom   33 type  6   force =    -0.00000719    0.00000183   -0.00001247
     atom   34 type  6   force =     0.00000719    0.00000183    0.00001247
     atom   35 type  6   force =     0.00000281    0.00000411    0.00000708
     atom   36 type  6   force =    -0.00000281    0.00000411   -0.00000708
     atom   37 type  6   force =    -0.00001343    0.00000455   -0.00003135
     atom   38 type  6   force =     0.00001343    0.00000455    0.00003135
     atom   39 type  3   force =     0.00000021    0.00000145    0.00000139
     atom   40 type  3   force =    -0.00000021    0.00000145   -0.00000139
     atom   41 type  3   force =    -0.00000126    0.00000203   -0.00000544
     atom   42 type  3   force =     0.00000126    0.00000203    0.00000544
     atom   43 type  2   force =    -0.00000000    0.00000713    0.00000000

     DFT-D3 dispersion contribution to forces:
     atom    1 type  4   force =    -0.00000000    0.00117020    0.00000000
     atom    2 type  4   force =     0.00000000    0.00048125   -0.00000000
     atom    3 type  5   force =    -0.00000000   -0.00173011    0.00000000
     atom    4 type  5   force =    -0.00000000   -0.00102290   -0.00000000
     atom    5 type  5   force =    -0.00000000    0.00119054    0.00000000
     atom    6 type  5   force =     0.00000000    0.00167687   -0.00000000
     atom    7 type  7   force =    -0.00033079    0.00008297    0.00050530
     atom    8 type  7   force =     0.00033079    0.00008297   -0.00050530
     atom    9 type  7   force =     0.00008431    0.00021337    0.00055773
     atom   10 type  7   force =    -0.00008431    0.00021337   -0.00055773
     atom   11 type  7   force =     0.00003169    0.00069010   -0.00062501
     atom   12 type  7   force =    -0.00003169    0.00069010    0.00062501
     atom   13 type  1   force =    -0.00060227   -0.00001578   -0.00137917
     atom   14 type  1   force =     0.00060227   -0.00001578    0.00137917
     atom   15 type  6   force =    -0.00012054    0.00054848    0.00061863
     atom   16 type  6   force =     0.00012054    0.00054848   -0.00061863
     atom   17 type  6   force =    -0.00010644   -0.00019759   -0.00018143
     atom   18 type  6   force =     0.00010644   -0.00019759    0.00018143
     atom   19 type  6   force =     0.00007690    0.00004944    0.00043265
     atom   20 type  6   force =    -0.00007690    0.00004944   -0.00043265
     atom   21 type  6   force =     0.00007882    0.00001709   -0.00013701
     atom   22 type  6   force =    -0.00007882    0.00001709    0.00013701
     atom   23 type  6   force =    -0.00030393    0.00108656   -0.00005477
     atom   24 type  6   force =     0.00030393    0.00108656    0.00005477
     atom   25 type  6   force =     0.00079193    0.00000361    0.00002615
     atom   26 type  6   force =    -0.00079194    0.00000361   -0.00002615
     atom   27 type  6   force =     0.00034838   -0.00030175   -0.00020696
     atom   28 type  6   force =    -0.00034838   -0.00030175    0.00020696
     atom   29 type  6   force =     0.00007353    0.00000300    0.00040541
     atom   30 type  6   force =    -0.00007352    0.00000300   -0.00040541
     atom   31 type  6   force =     0.00062186   -0.00036576    0.00055401
     atom   32 type  6   force =    -0.00062186   -0.00036576   -0.00055401
     atom   33 type  6   force =     0.00061296   -0.00074135   -0.00044159
     atom   34 type  6   force =    -0.00061296   -0.00074135    0.00044159
     atom   35 type  6   force =    -0.00056516   -0.00076109    0.00003458
     atom   36 type  6   force =     0.00056516   -0.00076109   -0.00003458
     atom   37 type  6   force =    -0.00006677   -0.00016376   -0.00073376
     atom   38 type  6   force =     0.00006677   -0.00016376    0.00073376
     atom   39 type  3   force =    -0.00028681   -0.00069828   -0.00015489
     atom   40 type  3   force =     0.00028681   -0.00069828    0.00015489
     atom   41 type  3   force =    -0.00016035   -0.00114461   -0.00010571
     atom   42 type  3   force =     0.00016035   -0.00114461    0.00010571
     atom   43 type  2   force =     0.00000000    0.00162486   -0.00000000

     Total force =     0.003075     Total SCF correction =     0.000183

     DFT-D3 dispersion Force =     0.006134

     Computing stress (Cartesian axis) and pressure

          total   stress  (Ry/bohr**3)                   (kbar)     P=        0.01
   0.00000028   0.00000000   0.00000010            0.04        0.00        0.01
   0.00000000  -0.00000043   0.00000000            0.00       -0.06        0.00
   0.00000010   0.00000000   0.00000043            0.01        0.00        0.06

     kinetic stress (kbar)  18513.65      0.00    -30.50
                                0.00  18443.96      0.00
                              -30.50      0.00  18448.30

     local   stress (kbar) -28496.30      0.00   1018.82
                                0.00 -26160.95      0.00
                             1018.82      0.00   4883.14

     nonloc. stress (kbar)   3905.11      0.00      3.02
                                0.00   3903.38      0.00
                                3.02      0.00   3889.68

     hartree stress (kbar)  15928.02     -0.00   -396.82
                               -0.00  14807.08      0.00
                             -396.82      0.00   -333.71

     exc-cor stress (kbar)  -2360.88     -0.00     -0.95
                               -0.00  -2359.86     -0.00
                               -0.95     -0.00  -2360.38

     corecor stress (kbar)  -1986.57      0.00      0.39
                                0.00  -1986.77      0.00
                                0.39      0.00  -1987.07

     ewald   stress (kbar)  -5488.76     -0.00   -594.01
                               -0.00  -6633.03     -0.00
                             -594.01     -0.00 -22528.35

     hubbard stress (kbar)      0.00      0.00      0.00
                                0.00      0.00      0.00
                                0.00      0.00      0.00

     DFT-D   stress (kbar)    -14.22      0.00      0.04
                                0.00    -13.88     -0.00
                                0.04     -0.00    -11.54

     XDM     stress (kbar)      0.00      0.00      0.00
                                0.00      0.00      0.00
                                0.00      0.00      0.00

     dft-nl  stress (kbar)      0.00      0.00      0.00
                                0.00      0.00      0.00
                                0.00      0.00      0.00

     TS-vdW  stress (kbar)      0.00      0.00      0.00
                                0.00      0.00      0.00
                                0.00      0.00      0.00

     MDB     stress (kbar)      0.00      0.00      0.00
                                0.00      0.00      0.00
                                0.00      0.00      0.00

     3D-RISM stress (kbar)      0.00      0.00      0.00
                                0.00      0.00      0.00
                                0.00      0.00      0.00

     Writing all to output data dir ./temp/phl-ti1-ti1.save/ :
     XML data file, charge density, pseudopotentials, collected wavefunctions

     General routines

     Parallel routines

     PAW routines

   This run was terminated on:   3:39:26  14Mar2025

   JOB DONE.