     Program PWSCF v.7.3.1 starts on 30Dec2024 at 16: 8: 2

     Reading input from vc_relax.in

     Current dimensions of program PWSCF are:
     Max number of different atomic species (ntypx) = 10
     Max number of k-points (npk) =  40000
     Max angular momentum in pseudopotentials (lmaxx) =  4
     file Al.pbe-n-kjpaw_psl.1.0.0.UPF: wavefunction(s)  3S 3P renormalized
     file Fe.pbe-spn-kjpaw_psl.1.0.0.UPF: wavefunction(s)  3P 3D renormalized
     file H.pbe-kjpaw_psl.1.0.0.UPF: wavefunction(s)  1S renormalized
     file K.pbe-spn-kjpaw_psl.1.0.0.UPF: wavefunction(s)  3S renormalized
     file Mg.pbe-spnl-kjpaw_psl.1.0.0.UPF: wavefunction(s)  2P renormalized
     file O.pbe-n-kjpaw_psl.1.0.0.UPF: wavefunction(s)  2S 2P renormalized
     file Si.pbe-n-kjpaw_psl.1.0.0.UPF: wavefunction(s)  3S 3P renormalized

     R & G space division:  proc/nbgrp/npool/nimage =       4
     Subspace diagonalization in iterative solution of the eigenvalue problem:
     one sub-group per band group will be used

     Using Slab Decomposition

     bravais-lattice index     =          -12
     lattice parameter (alat)  =       9.9883  a.u.
     unit-cell volume          =    3285.8057 (a.u.)^3
     number of atoms/cell      =           44
     number of atomic types    =            7
     number of electrons       =       262.00
     number of Kohn-Sham states=          157
     kinetic-energy cutoff     =      60.0000  Ry
     charge density cutoff     =     480.0000  Ry
     scf convergence threshold =      1.0E-06
     mixing beta               =       0.7000
     number of iterations used =            8  plain     mixing
     energy convergence thresh.=      1.0E-04
     force convergence thresh. =      1.0E-03
     press convergence thresh. =      5.0E-01
     Exchange-correlation= SLA  PW   PBX  PBC
                           (   1   4   3   4   0   0   0)
     nstep                     =           50

     celldm(1)=   9.988336  celldm(2)=   1.736567  celldm(3)=   1.928182
     celldm(4)=   0.000000  celldm(5)=  -0.174018  celldm(6)=   0.000000

     crystal axes: (cart. coord. in units of alat)
               a(1) = (   1.000000   0.000000   0.000000 )
               a(2) = (   0.000000   1.736567   0.000000 )
               a(3) = (  -0.335538   0.000000   1.898763 )

     reciprocal axes: (cart. coord. in units 2 pi/alat)
               b(1) = (  1.000000 -0.000000  0.176714 )
               b(2) = (  0.000000  0.575849 -0.000000 )
               b(3) = (  0.000000  0.000000  0.526659 )

     PseudoPot. # 1 for Al read from file:
     ./../../pseudos/Al.pbe-n-kjpaw_psl.1.0.0.UPF
     MD5 check sum: 502b6b27b9c6270cab5dd1084b96fa6d
     Pseudo is Projector augmented-wave + core cor, Zval =  3.0
     Generated using &quot;atomic&quot; code by A. Dal Corso  v.6.3
     Shape of augmentation charge: PSQ
     Using radial grid of 1135 points,  6 beta functions with:
                l(1) =   0
                l(2) =   0
                l(3) =   1
                l(4) =   1
                l(5) =   2
                l(6) =   2
     Q(r) pseudized with 0 coefficients

     PseudoPot. # 2 for Fe read from file:
     ./../../pseudos/Fe.pbe-spn-kjpaw_psl.1.0.0.UPF
     MD5 check sum: fc81f059e5c5069939230b1155715ae8
     Pseudo is Projector augmented-wave + core cor, Zval = 16.0
     Generated using &quot;atomic&quot; code by A. Dal Corso  v.6.3
     Shape of augmentation charge: PSQ
     Using radial grid of 1191 points,  6 beta functions with:
                l(1) =   0
                l(2) =   0
                l(3) =   1
                l(4) =   1
                l(5) =   2
                l(6) =   2
     Q(r) pseudized with 0 coefficients

     PseudoPot. # 3 for H  read from file:
     ./../../pseudos/H.pbe-kjpaw_psl.1.0.0.UPF
     MD5 check sum: d81a744832360e4a8af0b0b5b123bc2a
     Pseudo is Projector augmented-wave, Zval =  1.0
     Generated using &quot;atomic&quot; code by A. Dal Corso  v.6.3MaX
     Shape of augmentation charge: PSQ
     Using radial grid of  929 points,  2 beta functions with:
                l(1) =   0
                l(2) =   0
     Q(r) pseudized with 0 coefficients

     PseudoPot. # 4 for K  read from file:
     ./../../pseudos/K.pbe-spn-kjpaw_psl.1.0.0.UPF
     MD5 check sum: 34cc42130a09071ebe376fd42eb21491
     Pseudo is Projector augmented-wave + core cor, Zval =  9.0
     Generated using &quot;atomic&quot; code by A. Dal Corso  v.6.2.2
     Shape of augmentation charge: PSQ
     Using radial grid of 1165 points,  6 beta functions with:
                l(1) =   0
                l(2) =   0
                l(3) =   1
                l(4) =   1
                l(5) =   2
                l(6) =   2
     Q(r) pseudized with 0 coefficients

     PseudoPot. # 5 for Mg read from file:
     ./../../pseudos/Mg.pbe-spnl-kjpaw_psl.1.0.0.UPF
     MD5 check sum: fda14e0d92a6a9a5ebed782e5a4b3067
     Pseudo is Projector augmented-wave + core cor, Zval = 10.0
     Generated using &quot;atomic&quot; code by A. Dal Corso  v.6.3
     Shape of augmentation charge: PSQ
     Using radial grid of 1129 points,  4 beta functions with:
                l(1) =   0
                l(2) =   0
                l(3) =   1
                l(4) =   1
     Q(r) pseudized with 0 coefficients

     PseudoPot. # 6 for O  read from file:
     ./../../pseudos/O.pbe-n-kjpaw_psl.1.0.0.UPF
     MD5 check sum: e99d9cef9b487d1ca56f5b95ecd0fd7a
     Pseudo is Projector augmented-wave + core cor, Zval =  6.0
     Generated using &quot;atomic&quot; code by A. Dal Corso  v.6.3
     Shape of augmentation charge: PSQ
     Using radial grid of 1095 points,  4 beta functions with:
                l(1) =   0
                l(2) =   0
                l(3) =   1
                l(4) =   1
     Q(r) pseudized with 0 coefficients

     PseudoPot. # 7 for Si read from file:
     ./../../pseudos/Si.pbe-n-kjpaw_psl.1.0.0.UPF
     MD5 check sum: c39c59da582df4a0d9f10159256ea34e
     Pseudo is Projector augmented-wave + core cor, Zval =  4.0
     Generated using &quot;atomic&quot; code by A. Dal Corso  v.6.3
     Shape of augmentation charge: PSQ
     Using radial grid of 1141 points,  6 beta functions with:
                l(1) =   0
                l(2) =   0
                l(3) =   1
                l(4) =   1
                l(5) =   2
                l(6) =   2
     Q(r) pseudized with 0 coefficients

     atomic species   valence    mass     pseudopotential
     Al                3.00    26.98154     Al( 1.00)
     Fe               16.00    55.84500     Fe( 1.00)
     H                 1.00     1.00794     H ( 1.00)
     K                 9.00    39.09830     K ( 1.00)
     Mg               10.00    24.30500     Mg( 1.00)
     O                 6.00    15.99940     O ( 1.00)
     Si                4.00    28.08550     Si( 1.00)

     Starting magnetic structure
     atomic species   magnetization
     Al              0.000
     Fe              0.300
     H               0.000
     K               0.000
     Mg              0.000
     O               0.000
     Si              0.000

      2 Sym. Ops. (no inversion) found

                                    s                        frac. trans.

      isym =  1     identity

 cryst.   s( 1) = (     1          0          0      )
                  (     0          1          0      )
                  (     0          0          1      )

 cart.    s( 1) = (  1.0000000  0.0000000  0.0000000 )
                  (  0.0000000  1.0000000  0.0000000 )
                  (  0.0000000  0.0000000  1.0000000 )

      isym =  2     180 deg rotation - cart. axis [0,1,0]

[...]

     point group C_2  (2)
     there are  2 classes
     the character table:

       E     C2
A      1.00  1.00
B      1.00 -1.00

     the symmetry operations in each class and the name of the first element:

     E        1
          identity
     C2       2
          180 deg rotation - cart. axis [0,1,0]

   Cartesian axes

     site n.     atom                  positions (alat units)
         1        K      tau(   1) = (   0.0000000   0.8585262   0.0000000  )
         2        K      tau(   2) = (   0.5000000   0.0059212   0.0000000  )
         3        Mg     tau(   3) = (  -0.1677688   0.0065041   0.9493815  )
         4        Mg     tau(   4) = (  -0.1677688   0.5774284   0.9493815  )
         5        Mg     tau(   5) = (  -0.1677688   1.1555301   0.9493815  )
         6        Mg     tau(   6) = (   0.3322312   1.4504660   0.9493815  )
         7        Mg     tau(   7) = (   0.3322312   0.2936789   0.9493815  )
         8        Fe     tau(   8) = (   0.3322312   0.8544001   0.9493815  )
         9        Si     tau(   9) = (   0.0089820   0.2866807   0.4200069  )
        10        Si     tau(  10) = (   0.6554803   0.2866807   1.4787563  )
        11        Si     tau(  11) = (   0.6748942   1.4493737   1.4673199  )
        12        Si     tau(  12) = (  -0.0104318   1.4493737   0.4314432  )
        13        Si     tau(  13) = (   0.4893884   1.1594433   0.4284213  )
        14        Si     tau(  14) = (   0.1750740   1.1594433   1.4703418  )
        15        Al     tau(  15) = (   0.1545425   0.5747972   1.4747153  )
        16        Al     tau(  16) = (   0.5099199   0.5747972   0.4240478  )
        17        O      tau(  17) = (  -0.0011392   0.2834014   0.7286385  )
        18        O      tau(  18) = (   0.6656015   0.2834014   1.1701245  )
        19        O      tau(  19) = (   0.6691142   1.4468457   1.1612341  )
        20        O      tau(  20) = (  -0.0046518   1.4468457   0.7375290  )
        21        O      tau(  21) = (   0.4983382   1.1705664   0.7354300  )
        22        O      tau(  22) = (   0.1661242   1.1705664   1.1633330  )
        23        O      tau(  23) = (   0.1565094   0.5695366   1.1466801  )
        24        O      tau(  24) = (   0.5079530   0.5695366   0.7520829  )
        25        O      tau(  25) = (   0.2891592   0.3511323   0.3108636  )
        26        O      tau(  26) = (   0.3753032   0.3511323   1.5878995  )
        27        O      tau(  27) = (   0.9377863   1.7322218   0.3146971  )
        28        O      tau(  28) = (  -0.2733240   1.7322218   1.5840660  )
        29        O      tau(  29) = (   0.4015472   1.3492301   1.5817844  )
        30        O      tau(  30) = (   0.2629152   1.3492301   0.3169786  )
        31        O      tau(  31) = (   0.7622747   1.2692012   0.3144260  )
        32        O      tau(  32) = (  -0.0978122   1.2692012   1.5843371  )
        33        O      tau(  33) = (   0.4390582   0.8823218   0.3092362  )
        34        O      tau(  34) = (   0.2254042   0.8823218   1.5895269  )
        35        O      tau(  35) = (  -0.1406317   0.4823071   1.5993887  )
        36        O      tau(  36) = (   0.8050941   0.4823071   0.2993744  )
        37        O      tau(  37) = (  -0.0117400   0.8742134   0.7433029  )
        38        O      tau(  38) = (   0.6762024   0.8742134   1.1554602  )
        39        O      tau(  39) = (   0.5002417   1.7348079   0.7537154  )
        40        O      tau(  40) = (   0.1642207   1.7348079   1.1450476  )
[...]
     The core correction contribution to forces
     atom    1 type  4   force =     0.00000000   -0.00146914    0.00000000
     atom    2 type  4   force =    -0.00000000    0.00158960    0.00000000
     atom    3 type  5   force =     0.00000000    0.00019540   -0.00000000
     atom    4 type  5   force =    -0.00000000    0.00025762    0.00000000
     atom    5 type  5   force =    -0.00000000   -0.00036057    0.00000000
     atom    6 type  5   force =    -0.00000000    0.00023169    0.00000000
     atom    7 type  5   force =    -0.00000000    0.00031629   -0.00000000
     atom    8 type  2   force =    -0.00000000   -0.00847870    0.00000000
     atom    9 type  7   force =     0.00215985    0.01067171    0.00614773
     atom   10 type  7   force =    -0.00215993    0.01067172   -0.00614764
     atom   11 type  7   force =     0.00017378    0.00321951   -0.01380756
     atom   12 type  7   force =    -0.00017380    0.00321951    0.01380760
     atom   13 type  7   force =    -0.00097447   -0.01079190    0.01127111
     atom   14 type  7   force =     0.00097446   -0.01079191   -0.01127107
     atom   15 type  1   force =    -0.00069706   -0.00313326   -0.00910562
     atom   16 type  1   force =     0.00069706   -0.00313326    0.00910565
     atom   17 type  6   force =    -0.00013723    0.00019964    0.00651892
     atom   18 type  6   force =     0.00013721    0.00019964   -0.00651892
     atom   19 type  6   force =    -0.00014503    0.00006902   -0.00704470
     atom   20 type  6   force =     0.00014503    0.00006902    0.00704470
     atom   21 type  6   force =     0.00048020    0.00046785    0.00671511
     atom   22 type  6   force =    -0.00048020    0.00046785   -0.00671512
     atom   23 type  6   force =    -0.00057360   -0.00110077   -0.00269692
     atom   24 type  6   force =     0.00057360   -0.00110077    0.00269690
     atom   25 type  6   force =     0.00448565   -0.00151377   -0.00585467
     atom   26 type  6   force =    -0.00448564   -0.00151378    0.00585469
     atom   27 type  6   force =    -0.00314435    0.00076754   -0.00716872
     atom   28 type  6   force =     0.00314433    0.00076754    0.00716875
     atom   29 type  6   force =    -0.00140373    0.00193143    0.00736599
     atom   30 type  6   force =     0.00140373    0.00193143   -0.00736600
     atom   31 type  6   force =     0.00074277   -0.00186890   -0.00755565
     atom   32 type  6   force =    -0.00074277   -0.00186889    0.00755565
     atom   33 type  6   force =    -0.00223662   -0.00347553   -0.00632848
     atom   34 type  6   force =     0.00223663   -0.00347553    0.00632849
     atom   35 type  6   force =     0.00118421    0.00392804    0.00645839
     atom   36 type  6   force =    -0.00118421    0.00392804   -0.00645838
     atom   37 type  6   force =    -0.00222620    0.00042395    0.01111274
     atom   38 type  6   force =     0.00222619    0.00042394   -0.01111272
     atom   39 type  6   force =     0.00001846   -0.00148742    0.01110369
     atom   40 type  6   force =    -0.00001845   -0.00148741   -0.01110367
     atom   41 type  3   force =     0.00000000    0.00000000    0.00000000
     atom   42 type  3   force =     0.00000000    0.00000000    0.00000000
     atom   43 type  3   force =     0.00000000    0.00000000    0.00000000
     atom   44 type  3   force =     0.00000000    0.00000000    0.00000000
     The Hubbard contrib.    to forces
     atom    1 type  4   force =     0.00000000    0.00000000    0.00000000
     atom    2 type  4   force =     0.00000000    0.00000000    0.00000000
     atom    3 type  5   force =     0.00000000    0.00000000    0.00000000
     atom    4 type  5   force =     0.00000000    0.00000000    0.00000000
     atom    5 type  5   force =     0.00000000    0.00000000    0.00000000
     atom    6 type  5   force =     0.00000000    0.00000000    0.00000000
     atom    7 type  5   force =     0.00000000    0.00000000    0.00000000
     atom    8 type  2   force =     0.00000000    0.00000000    0.00000000
     atom    9 type  7   force =     0.00000000    0.00000000    0.00000000
     atom   10 type  7   force =     0.00000000    0.00000000    0.00000000
     atom   11 type  7   force =     0.00000000    0.00000000    0.00000000
     atom   12 type  7   force =     0.00000000    0.00000000    0.00000000
     atom   13 type  7   force =     0.00000000    0.00000000    0.00000000
     atom   14 type  7   force =     0.00000000    0.00000000    0.00000000
     atom   15 type  1   force =     0.00000000    0.00000000    0.00000000
     atom   16 type  1   force =     0.00000000    0.00000000    0.00000000
     atom   17 type  6   force =     0.00000000    0.00000000    0.00000000
     atom   18 type  6   force =     0.00000000    0.00000000    0.00000000
     atom   19 type  6   force =     0.00000000    0.00000000    0.00000000
     atom   20 type  6   force =     0.00000000    0.00000000    0.00000000
     atom   21 type  6   force =     0.00000000    0.00000000    0.00000000
     atom   22 type  6   force =     0.00000000    0.00000000    0.00000000
     atom   23 type  6   force =     0.00000000    0.00000000    0.00000000
     atom   24 type  6   force =     0.00000000    0.00000000    0.00000000
     atom   25 type  6   force =     0.00000000    0.00000000    0.00000000
     atom   26 type  6   force =     0.00000000    0.00000000    0.00000000
     atom   27 type  6   force =     0.00000000    0.00000000    0.00000000
     atom   28 type  6   force =     0.00000000    0.00000000    0.00000000
     atom   29 type  6   force =     0.00000000    0.00000000    0.00000000
     atom   30 type  6   force =     0.00000000    0.00000000    0.00000000
     atom   31 type  6   force =     0.00000000    0.00000000    0.00000000
     atom   32 type  6   force =     0.00000000    0.00000000    0.00000000
     atom   33 type  6   force =     0.00000000    0.00000000    0.00000000
     atom   34 type  6   force =     0.00000000    0.00000000    0.00000000
     atom   35 type  6   force =     0.00000000    0.00000000    0.00000000
     atom   36 type  6   force =     0.00000000    0.00000000    0.00000000
     atom   37 type  6   force =     0.00000000    0.00000000    0.00000000
     atom   38 type  6   force =     0.00000000    0.00000000    0.00000000
     atom   39 type  6   force =     0.00000000    0.00000000    0.00000000
     atom   40 type  6   force =     0.00000000    0.00000000    0.00000000
     atom   41 type  3   force =     0.00000000    0.00000000    0.00000000
     atom   42 type  3   force =     0.00000000    0.00000000    0.00000000
     atom   43 type  3   force =     0.00000000    0.00000000    0.00000000
     atom   44 type  3   force =     0.00000000    0.00000000    0.00000000
     The SCF correction term to forces
     atom    1 type  4   force =     0.00000000    0.00000969   -0.00000000
     atom    2 type  4   force =    -0.00000000   -0.00000939   -0.00000000
     atom    3 type  5   force =    -0.00000000   -0.00001349    0.00000000
     atom    4 type  5   force =     0.00000000    0.00000201    0.00000000
     atom    5 type  5   force =    -0.00000000    0.00000869    0.00000000
     atom    6 type  5   force =     0.00000000   -0.00000528    0.00000000
     atom    7 type  5   force =    -0.00000000   -0.00001915    0.00000000
     atom    8 type  2   force =    -0.00000000    0.00004773    0.00000000
     atom    9 type  7   force =    -0.00000159   -0.00000580   -0.00001431
     atom   10 type  7   force =     0.00000159   -0.00000580    0.00001431
     atom   11 type  7   force =     0.00000011   -0.00000006    0.00000931
     atom   12 type  7   force =    -0.00000011   -0.00000006   -0.00000931
     atom   13 type  7   force =    -0.00000006    0.00000590   -0.00000809
     atom   14 type  7   force =     0.00000006    0.00000590    0.00000809
     atom   15 type  1   force =    -0.00000088    0.00000019    0.00001233
     atom   16 type  1   force =     0.00000088    0.00000019   -0.00001233
     atom   17 type  6   force =    -0.00000183   -0.00000306   -0.00000835
     atom   18 type  6   force =     0.00000183   -0.00000306    0.00000835
     atom   19 type  6   force =    -0.00000276   -0.00000188    0.00000716
     atom   20 type  6   force =     0.00000276   -0.00000188   -0.00000716
     atom   21 type  6   force =    -0.00000210    0.00000830    0.00000045
     atom   22 type  6   force =     0.00000210    0.00000830   -0.00000045
     atom   23 type  6   force =    -0.00000293   -0.00000081    0.00001931
     atom   24 type  6   force =     0.00000293   -0.00000081   -0.00001931
     atom   25 type  6   force =     0.00000314   -0.00000772   -0.00002483
     atom   26 type  6   force =    -0.00000314   -0.00000772    0.00002483
     atom   27 type  6   force =    -0.00000290   -0.00001203   -0.00002689
     atom   28 type  6   force =     0.00000290   -0.00001203    0.00002689
     atom   29 type  6   force =     0.00000465    0.00000419    0.00002495
     atom   30 type  6   force =    -0.00000465    0.00000419   -0.00002495
     atom   31 type  6   force =     0.00000658    0.00000514   -0.00002745
     atom   32 type  6   force =    -0.00000658    0.00000514    0.00002745
     atom   33 type  6   force =    -0.00000319    0.00000728   -0.00002467
     atom   34 type  6   force =     0.00000319    0.00000728    0.00002467
     atom   35 type  6   force =     0.00000013    0.00000077    0.00002387
     atom   36 type  6   force =    -0.00000013    0.00000077   -0.00002387
     atom   37 type  6   force =    -0.00000331    0.00000677   -0.00001392
     atom   38 type  6   force =     0.00000331    0.00000677    0.00001392
     atom   39 type  6   force =    -0.00000060   -0.00000979   -0.00001499
     atom   40 type  6   force =     0.00000060   -0.00000979    0.00001499
     atom   41 type  3   force =    -0.00000033    0.00000115   -0.00000035
     atom   42 type  3   force =     0.00000033    0.00000115    0.00000035
     atom   43 type  3   force =     0.00000008   -0.00000172    0.00000054
     atom   44 type  3   force =    -0.00000008   -0.00000172   -0.00000054

     DFT-D3 dispersion contribution to forces:
     atom    1 type  4   force =     0.00000000    0.00107829    0.00000000
     atom    2 type  4   force =     0.00000000   -0.00098705    0.00000000
     atom    3 type  5   force =    -0.00000000    0.00030517   -0.00000000
     atom    4 type  5   force =     0.00000000    0.00086000   -0.00000000
     atom    5 type  5   force =     0.00000000   -0.00122248   -0.00000000
     atom    6 type  5   force =     0.00000000    0.00111628   -0.00000000
     atom    7 type  5   force =     0.00000000   -0.00033441   -0.00000000
     atom    8 type  2   force =    -0.00000000   -0.00061698   -0.00000000
     atom    9 type  7   force =     0.00004440   -0.00016099   -0.00032466
     atom   10 type  7   force =    -0.00004440   -0.00016099    0.00032466
     atom   11 type  7   force =     0.00002453    0.00015715    0.00026438
     atom   12 type  7   force =    -0.00002453    0.00015715   -0.00026438
     atom   13 type  7   force =    -0.00010036    0.00010123   -0.00001609
     atom   14 type  7   force =     0.00010036    0.00010123    0.00001609
     atom   15 type  1   force =     0.00012457    0.00016214   -0.00106910
     atom   16 type  1   force =    -0.00012457    0.00016214    0.00106910
     atom   17 type  6   force =    -0.00002054    0.00001262    0.00043825
     atom   18 type  6   force =     0.00002054    0.00001262   -0.00043825
     atom   19 type  6   force =     0.00001537    0.00004290   -0.00038850
     atom   20 type  6   force =    -0.00001537    0.00004290    0.00038849
     atom   21 type  6   force =    -0.00004009   -0.00008114    0.00046790
     atom   22 type  6   force =     0.00004009   -0.00008114   -0.00046789
     atom   23 type  6   force =    -0.00002090    0.00003402    0.00005439
     atom   24 type  6   force =     0.00002090    0.00003402   -0.00005439
     atom   25 type  6   force =    -0.00018569    0.00098968    0.00031717
     atom   26 type  6   force =     0.00018569    0.00098968   -0.00031718
     atom   27 type  6   force =     0.00083858    0.00007120    0.00019941
     atom   28 type  6   force =    -0.00083858    0.00007120   -0.00019941
     atom   29 type  6   force =     0.00032564   -0.00049032    0.00005328
     atom   30 type  6   force =    -0.00032564   -0.00049032   -0.00005328
     atom   31 type  6   force =    -0.00018224    0.00032214   -0.00009899
     atom   32 type  6   force =     0.00018224    0.00032214    0.00009899
     atom   33 type  6   force =     0.00091883   -0.00044255    0.00040314
     atom   34 type  6   force =    -0.00091883   -0.00044254   -0.00040314
     atom   35 type  6   force =     0.00065408   -0.00054202   -0.00046026
     atom   36 type  6   force =    -0.00065408   -0.00054202    0.00046026
     atom   37 type  6   force =     0.00013937   -0.00001459   -0.00044936
     atom   38 type  6   force =    -0.00013937   -0.00001459    0.00044936
     atom   39 type  6   force =     0.00001278    0.00005650   -0.00051134
     atom   40 type  6   force =    -0.00001278    0.00005650    0.00051134
     atom   41 type  3   force =    -0.00002868    0.00005787   -0.00012076
     atom   42 type  3   force =     0.00002868    0.00005787    0.00012076
     atom   43 type  3   force =     0.00001927   -0.00037525   -0.00033411
     atom   44 type  3   force =    -0.00001927   -0.00037525    0.00033411

     Total force =     0.002717     Total SCF correction =     0.000123

     DFT-D3 dispersion Force =     0.004553

     Computing stress (Cartesian axis) and pressure

     negative rho (up, down):  0.000E+00 4.809E-04
          total   stress  (Ry/bohr**3)                   (kbar)     P=       -0.41
  -0.00000286   0.00000000   0.00000015           -0.42        0.00        0.02
   0.00000000  -0.00000444   0.00000000            0.00       -0.65        0.00
   0.00000015   0.00000000  -0.00000102            0.02        0.00       -0.15

     kinetic stress (kbar)  20097.64      0.00     18.95
                                0.00  20015.69      0.00
                               18.95      0.00  19843.87

     local   stress (kbar) -40444.63      0.00    147.98
                                0.00 -40273.54      0.00
                              147.98      0.00  19330.28

     nonloc. stress (kbar)   3792.56      0.00      0.47
                                0.00   3794.40      0.00
                                0.47      0.00   3771.03

     hartree stress (kbar)  22797.01      0.00    -55.91
                                0.00  22719.49     -0.00
                              -55.91     -0.00  -6429.13

     exc-cor stress (kbar)  -2815.34     -0.00     -0.10
                               -0.00  -2815.73     -0.00
                               -0.10     -0.00  -2812.11

     corecor stress (kbar)  -1854.53      0.00     -0.06
                                0.00  -1854.03      0.00
                               -0.06      0.00  -1856.22

     ewald   stress (kbar)  -1558.61     -0.00   -111.47
                               -0.00  -1572.18      0.00
                             -111.47      0.00 -31836.95

     hubbard stress (kbar)      0.00      0.00      0.00
                                0.00      0.00      0.00
                                0.00      0.00      0.00

     DFT-D   stress (kbar)    -14.52     -0.00      0.16
                               -0.00    -14.74      0.00
                                0.16      0.00    -10.91

     XDM     stress (kbar)      0.00      0.00      0.00
                                0.00      0.00      0.00
                                0.00      0.00      0.00

     dft-nl  stress (kbar)      0.00      0.00      0.00
                                0.00      0.00      0.00
                                0.00      0.00      0.00

     TS-vdW  stress (kbar)      0.00      0.00      0.00
                                0.00      0.00      0.00
                                0.00      0.00      0.00

     MDB     stress (kbar)      0.00      0.00      0.00
                                0.00      0.00      0.00
                                0.00      0.00      0.00

     3D-RISM stress (kbar)      0.00      0.00      0.00
                                0.00      0.00      0.00
                                0.00      0.00      0.00

     Writing all to output data dir ./temp/phl-fe1-dftd3.save/ :
     XML data file, charge density, pseudopotentials, collected wavefunctions

     General routines

     Parallel routines

     PAW routines

   This run was terminated on:   5: 3:44   2Jan2025

   JOB DONE.