     Program PWSCF v.7.3.1 starts on  5Feb2025 at 23:41:16

     Reading input from vc_relax.in

     Current dimensions of program PWSCF are:
     Max number of different atomic species (ntypx) = 10
     Max number of k-points (npk) =  40000
     Max angular momentum in pseudopotentials (lmaxx) =  4
     file Al.pbe-n-kjpaw_psl.1.0.0.UPF: wavefunction(s)  3S 3P renormalized
     file Fe.pbe-spn-kjpaw_psl.1.0.0.UPF: wavefunction(s)  3P 3D renormalized
     file H.pbe-kjpaw_psl.1.0.0.UPF: wavefunction(s)  1S renormalized
     file K.pbe-spn-kjpaw_psl.1.0.0.UPF: wavefunction(s)  3S renormalized
     file Mg.pbe-spnl-kjpaw_psl.1.0.0.UPF: wavefunction(s)  2P renormalized
     file O.pbe-n-kjpaw_psl.1.0.0.UPF: wavefunction(s)  2S 2P renormalized
     file Si.pbe-n-kjpaw_psl.1.0.0.UPF: wavefunction(s)  3S 3P renormalized

     R & G space division:  proc/nbgrp/npool/nimage =       6
     Subspace diagonalization in iterative solution of the eigenvalue problem:
     one sub-group per band group will be used

     Using Slab Decomposition

     bravais-lattice index     =          -12
     lattice parameter (alat)  =      10.0281  a.u.
     unit-cell volume          =    3376.0184 (a.u.)^3
     number of atoms/cell      =           44
     number of atomic types    =            7
     number of electrons       =       262.00
     number of Kohn-Sham states=          157
     kinetic-energy cutoff     =      60.0000  Ry
     charge density cutoff     =     480.0000  Ry
     scf convergence threshold =      1.0E-06
     mixing beta               =       0.7000
     number of iterations used =            8  plain     mixing
     energy convergence thresh.=      1.0E-06
     force convergence thresh. =      1.0E-03
     press convergence thresh. =      5.0E-01
     Exchange-correlation= SLA  PW   PBX  PBC
                           (   1   4   3   4   0   0   0)
     nstep                     =           50

     celldm(1)=  10.028089  celldm(2)=   1.730369  celldm(3)=   1.965803
     celldm(4)=   0.000000  celldm(5)=  -0.177210  celldm(6)=   0.000000

     crystal axes: (cart. coord. in units of alat)
               a(1) = (   1.000000   0.000000   0.000000 )
               a(2) = (   0.000000   1.730369   0.000000 )
               a(3) = (  -0.348359   0.000000   1.934690 )

     reciprocal axes: (cart. coord. in units 2 pi/alat)
               b(1) = (  1.000000 -0.000000  0.180059 )
               b(2) = (  0.000000  0.577911 -0.000000 )
               b(3) = (  0.000000  0.000000  0.516879 )

     PseudoPot. # 1 for Al read from file:
     ./../../../pseudos/Al.pbe-n-kjpaw_psl.1.0.0.UPF
     MD5 check sum: 502b6b27b9c6270cab5dd1084b96fa6d
     Pseudo is Projector augmented-wave + core cor, Zval =  3.0
     Generated using &quot;atomic&quot; code by A. Dal Corso  v.6.3
     Shape of augmentation charge: PSQ
     Using radial grid of 1135 points,  6 beta functions with:
                l(1) =   0
                l(2) =   0
                l(3) =   1
                l(4) =   1
                l(5) =   2
                l(6) =   2
     Q(r) pseudized with 0 coefficients

     PseudoPot. # 2 for Fe read from file:
     ./../../../pseudos/Fe.pbe-spn-kjpaw_psl.1.0.0.UPF
     MD5 check sum: fc81f059e5c5069939230b1155715ae8
     Pseudo is Projector augmented-wave + core cor, Zval = 16.0
     Generated using &quot;atomic&quot; code by A. Dal Corso  v.6.3
     Shape of augmentation charge: PSQ
     Using radial grid of 1191 points,  6 beta functions with:
                l(1) =   0
                l(2) =   0
                l(3) =   1
                l(4) =   1
                l(5) =   2
                l(6) =   2
     Q(r) pseudized with 0 coefficients

     PseudoPot. # 3 for H  read from file:
     ./../../../pseudos/H.pbe-kjpaw_psl.1.0.0.UPF
     MD5 check sum: d81a744832360e4a8af0b0b5b123bc2a
     Pseudo is Projector augmented-wave, Zval =  1.0
     Generated using &quot;atomic&quot; code by A. Dal Corso  v.6.3MaX
     Shape of augmentation charge: PSQ
     Using radial grid of  929 points,  2 beta functions with:
                l(1) =   0
                l(2) =   0
     Q(r) pseudized with 0 coefficients

     PseudoPot. # 4 for K  read from file:
     ./../../../pseudos/K.pbe-spn-kjpaw_psl.1.0.0.UPF
     MD5 check sum: 34cc42130a09071ebe376fd42eb21491
     Pseudo is Projector augmented-wave + core cor, Zval =  9.0
     Generated using &quot;atomic&quot; code by A. Dal Corso  v.6.2.2
     Shape of augmentation charge: PSQ
     Using radial grid of 1165 points,  6 beta functions with:
                l(1) =   0
                l(2) =   0
                l(3) =   1
                l(4) =   1
                l(5) =   2
                l(6) =   2
     Q(r) pseudized with 0 coefficients

     PseudoPot. # 5 for Mg read from file:
     ./../../../pseudos/Mg.pbe-spnl-kjpaw_psl.1.0.0.UPF
     MD5 check sum: fda14e0d92a6a9a5ebed782e5a4b3067
     Pseudo is Projector augmented-wave + core cor, Zval = 10.0
     Generated using &quot;atomic&quot; code by A. Dal Corso  v.6.3
     Shape of augmentation charge: PSQ
     Using radial grid of 1129 points,  4 beta functions with:
                l(1) =   0
                l(2) =   0
                l(3) =   1
                l(4) =   1
     Q(r) pseudized with 0 coefficients

     PseudoPot. # 6 for O  read from file:
     ./../../../pseudos/O.pbe-n-kjpaw_psl.1.0.0.UPF
     MD5 check sum: e99d9cef9b487d1ca56f5b95ecd0fd7a
     Pseudo is Projector augmented-wave + core cor, Zval =  6.0
     Generated using &quot;atomic&quot; code by A. Dal Corso  v.6.3
     Shape of augmentation charge: PSQ
     Using radial grid of 1095 points,  4 beta functions with:
                l(1) =   0
                l(2) =   0
                l(3) =   1
                l(4) =   1
     Q(r) pseudized with 0 coefficients

     PseudoPot. # 7 for Si read from file:
     ./../../../pseudos/Si.pbe-n-kjpaw_psl.1.0.0.UPF
     MD5 check sum: c39c59da582df4a0d9f10159256ea34e
     Pseudo is Projector augmented-wave + core cor, Zval =  4.0
     Generated using &quot;atomic&quot; code by A. Dal Corso  v.6.3
     Shape of augmentation charge: PSQ
     Using radial grid of 1141 points,  6 beta functions with:
                l(1) =   0
                l(2) =   0
                l(3) =   1
                l(4) =   1
                l(5) =   2
                l(6) =   2
     Q(r) pseudized with 0 coefficients

     atomic species   valence    mass     pseudopotential
     Al                3.00    26.98154     Al( 1.00)
     Fe               16.00    55.84500     Fe( 1.00)
     H                 1.00     1.00794     H ( 1.00)
     K                 9.00    39.09830     K ( 1.00)
     Mg               10.00    24.30500     Mg( 1.00)
     O                 6.00    15.99940     O ( 1.00)
     Si                4.00    28.08550     Si( 1.00)

      2 Sym. Ops. (no inversion) found

                                    s                        frac. trans.

      isym =  1     identity

 cryst.   s( 1) = (     1          0          0      )
                  (     0          1          0      )
                  (     0          0          1      )

 cart.    s( 1) = (  1.0000000  0.0000000  0.0000000 )
                  (  0.0000000  1.0000000  0.0000000 )
                  (  0.0000000  0.0000000  1.0000000 )

      isym =  2     180 deg rotation - cart. axis [0,1,0]

[...]

     point group C_2  (2)
     there are  2 classes
     the character table:

       E     C2
A      1.00  1.00
B      1.00 -1.00

     the symmetry operations in each class and the name of the first element:

     E        1
          identity
     C2       2
          180 deg rotation - cart. axis [0,1,0]

   Cartesian axes

     site n.     atom                  positions (alat units)
         1        K      tau(   1) = (   0.0000000   0.8617144   0.0000000  )
         2        K      tau(   2) = (   0.5000002   0.0080747   0.0000000  )
         3        Mg     tau(   3) = (  -0.1741796   0.0153937   0.9673450  )
         4        Mg     tau(   4) = (  -0.1741796   1.1450587   0.9673450  )
         5        Mg     tau(   5) = (   0.3258204   0.8479547   0.9673450  )
         6        Mg     tau(   6) = (   0.3258204   1.4446134   0.9673450  )
         7        Mg     tau(   7) = (   0.3258204   0.3019103   0.9673450  )
         8        Si     tau(   8) = (   0.0090814   0.2909438   0.4403040  )
         9        Si     tau(   9) = (   0.6425594   0.2909438   1.4943861  )
        10        Si     tau(  10) = (   0.6693547   1.4458180   1.4811201  )
        11        Si     tau(  11) = (  -0.0177139   1.4458180   0.4535699  )
        12        Si     tau(  12) = (   0.4815886   1.1542146   0.4477286  )
        13        Si     tau(  13) = (   0.1700523   1.1542146   1.4869614  )
        14        Al     tau(  14) = (   0.1396826   0.5745774   1.4928119  )
        15        Al     tau(  15) = (   0.5119582   0.5745774   0.4418781  )
        16        O      tau(  16) = (  -0.0068617   0.2910846   0.7489091  )
        17        O      tau(  17) = (   0.6585025   0.2910846   1.1857810  )
        18        O      tau(  18) = (   0.6636624   1.4403052   1.1760523  )
        19        O      tau(  19) = (  -0.0120216   1.4403052   0.7586376  )
        20        O      tau(  20) = (   0.4873188   1.1553358   0.7546597  )
        21        O      tau(  21) = (   0.1643220   1.1553358   1.1800304  )
        22        O      tau(  22) = (   0.1490874   0.5760468   1.1660220  )
        23        O      tau(  23) = (   0.5025535   0.5760468   0.7686680  )
        24        O      tau(  24) = (   0.2903342   0.3499261   0.3316705  )
        25        O      tau(  25) = (   0.3613066   0.3499261   1.6030195  )
        26        O      tau(  26) = (   0.9376543   1.7299721   0.3387497  )
        27        O      tau(  27) = (  -0.2860135   1.7299721   1.5959402  )
        28        O      tau(  28) = (   0.3997939   1.3395536   1.5966313  )
        29        O      tau(  29) = (   0.2518470   1.3395536   0.3380588  )
        30        O      tau(  30) = (   0.7504975   1.2736484   0.3363432  )
        31        O      tau(  31) = (  -0.0988566   1.2736484   1.5983468  )
        32        O      tau(  32) = (   0.4413630   0.8795131   0.3216912  )
        33        O      tau(  33) = (   0.2102778   0.8795131   1.6129989  )
        34        O      tau(  34) = (  -0.1564119   0.4865215   1.6183674  )
        35        O      tau(  35) = (   0.8080527   0.4865215   0.3163226  )
        36        O      tau(  36) = (  -0.0120125   0.8587517   0.7704936  )
        37        O      tau(  37) = (   0.6636533   0.8587517   1.1641965  )
        38        O      tau(  38) = (   0.4932333   0.0001301   0.7734277  )
        39        O      tau(  39) = (   0.1584076   0.0001301   1.1612622  )
        40        H      tau(  40) = (  -0.0199001   0.8267596   0.5908759  )
        41        H      tau(  41) = (   0.6715410   0.8267596   1.3438142  )
        42        H      tau(  42) = (   0.4890447   0.0300283   0.5937093  )
        43        H      tau(  43) = (   0.1625962   0.0300283   1.3409807  )
[...]
     atom    1 type  4   force =     0.00000000   -0.00148814   -0.00000000
     atom    2 type  4   force =     0.00000146    0.00148916   -0.00000000
     atom    3 type  5   force =    -0.00000020    0.00028063    0.00000109
     atom    4 type  5   force =    -0.00000020   -0.00036430    0.00000109
     atom    5 type  5   force =    -0.00000057   -0.00094453    0.00000109
     atom    6 type  5   force =    -0.00000057    0.00032154    0.00000109
     atom    7 type  5   force =    -0.00000057    0.00043641    0.00000109
     atom    8 type  7   force =     0.00189366    0.01028607    0.00521576
     atom    9 type  7   force =    -0.00189338    0.01028606   -0.00521607
     atom   10 type  7   force =     0.00026291    0.00247538   -0.01363170
     atom   11 type  7   force =    -0.00026266    0.00247540    0.01363121
     atom   12 type  7   force =    -0.00134440   -0.01203873    0.00960205
     atom   13 type  7   force =     0.00134463   -0.01203867   -0.00960252
     atom   14 type  1   force =    -0.00018812   -0.00159788   -0.01002808
     atom   15 type  1   force =     0.00018830   -0.00159788    0.01002774
     atom   16 type  6   force =     0.00041104   -0.00097493    0.00599926
     atom   17 type  6   force =    -0.00041100   -0.00097497   -0.00599926
     atom   18 type  6   force =    -0.00000263    0.00002322   -0.00715387
     atom   19 type  6   force =     0.00000273    0.00002322    0.00715385
     atom   20 type  6   force =     0.00005437   -0.00025264    0.00681902
     atom   21 type  6   force =    -0.00005427   -0.00025264   -0.00681903
     atom   22 type  6   force =     0.00182813   -0.00010165   -0.00241654
     atom   23 type  6   force =    -0.00182806   -0.00010165    0.00241644
     atom   24 type  6   force =     0.00470326   -0.00212556   -0.00566244
     atom   25 type  6   force =    -0.00470328   -0.00212553    0.00566229
     atom   26 type  6   force =    -0.00365770    0.00079135   -0.00698522
     atom   27 type  6   force =     0.00365784    0.00079136    0.00698501
     atom   28 type  6   force =    -0.00162935    0.00235632    0.00733341
     atom   29 type  6   force =     0.00162934    0.00235635   -0.00733354
     atom   30 type  6   force =     0.00084894   -0.00209317   -0.00750531
     atom   31 type  6   force =    -0.00084894   -0.00209312    0.00750516
     atom   32 type  6   force =    -0.00256891   -0.00350395   -0.00662704
     atom   33 type  6   force =     0.00256899   -0.00350397    0.00662694
     atom   34 type  6   force =     0.00086258    0.00444278    0.00662472
     atom   35 type  6   force =    -0.00086253    0.00444278   -0.00662486
     atom   36 type  6   force =     0.00162772    0.00338852    0.01043000
     atom   37 type  6   force =    -0.00162760    0.00338853   -0.01042991
     atom   38 type  6   force =     0.00000780   -0.00171626    0.01094892
     atom   39 type  6   force =    -0.00000761   -0.00171620   -0.01094875
     atom   40 type  3   force =     0.00000000    0.00000000    0.00000000
     atom   41 type  3   force =     0.00000000    0.00000000    0.00000000
     atom   42 type  3   force =     0.00000000    0.00000000    0.00000000
     atom   43 type  3   force =     0.00000000    0.00000000    0.00000000
     atom   44 type  2   force =     0.00000016    0.00361840   -0.00000094
     The Hubbard contrib.    to forces
     atom    1 type  4   force =     0.00000000    0.00000000    0.00000000
     atom    2 type  4   force =     0.00000000    0.00000000    0.00000000
     atom    3 type  5   force =     0.00000000    0.00000000    0.00000000
     atom    4 type  5   force =     0.00000000    0.00000000    0.00000000
     atom    5 type  5   force =     0.00000000    0.00000000    0.00000000
     atom    6 type  5   force =     0.00000000    0.00000000    0.00000000
     atom    7 type  5   force =     0.00000000    0.00000000    0.00000000
     atom    8 type  7   force =     0.00000000    0.00000000    0.00000000
     atom    9 type  7   force =     0.00000000    0.00000000    0.00000000
     atom   10 type  7   force =     0.00000000    0.00000000    0.00000000
     atom   11 type  7   force =     0.00000000    0.00000000    0.00000000
     atom   12 type  7   force =     0.00000000    0.00000000    0.00000000
     atom   13 type  7   force =     0.00000000    0.00000000    0.00000000
     atom   14 type  1   force =     0.00000000    0.00000000    0.00000000
     atom   15 type  1   force =     0.00000000    0.00000000    0.00000000
     atom   16 type  6   force =     0.00000000    0.00000000    0.00000000
     atom   17 type  6   force =     0.00000000    0.00000000    0.00000000
     atom   18 type  6   force =     0.00000000    0.00000000    0.00000000
     atom   19 type  6   force =     0.00000000    0.00000000    0.00000000
     atom   20 type  6   force =     0.00000000    0.00000000    0.00000000
     atom   21 type  6   force =     0.00000000    0.00000000    0.00000000
     atom   22 type  6   force =     0.00000000    0.00000000    0.00000000
     atom   23 type  6   force =     0.00000000    0.00000000    0.00000000
     atom   24 type  6   force =     0.00000000    0.00000000    0.00000000
     atom   25 type  6   force =     0.00000000    0.00000000    0.00000000
     atom   26 type  6   force =     0.00000000    0.00000000    0.00000000
     atom   27 type  6   force =     0.00000000    0.00000000    0.00000000
     atom   28 type  6   force =     0.00000000    0.00000000    0.00000000
     atom   29 type  6   force =     0.00000000    0.00000000    0.00000000
     atom   30 type  6   force =     0.00000000    0.00000000    0.00000000
     atom   31 type  6   force =     0.00000000    0.00000000    0.00000000
     atom   32 type  6   force =     0.00000000    0.00000000    0.00000000
     atom   33 type  6   force =     0.00000000    0.00000000    0.00000000
     atom   34 type  6   force =     0.00000000    0.00000000    0.00000000
     atom   35 type  6   force =     0.00000000    0.00000000    0.00000000
     atom   36 type  6   force =     0.00000000    0.00000000    0.00000000
     atom   37 type  6   force =     0.00000000    0.00000000    0.00000000
     atom   38 type  6   force =     0.00000000    0.00000000    0.00000000
     atom   39 type  6   force =     0.00000000    0.00000000    0.00000000
     atom   40 type  3   force =     0.00000000    0.00000000    0.00000000
     atom   41 type  3   force =     0.00000000    0.00000000    0.00000000
     atom   42 type  3   force =     0.00000000    0.00000000    0.00000000
     atom   43 type  3   force =     0.00000000    0.00000000    0.00000000
     atom   44 type  2   force =     0.00000000    0.00000000    0.00000000
     The SCF correction term to forces
     atom    1 type  4   force =     0.00000000    0.00000206   -0.00000000
     atom    2 type  4   force =    -0.00000000   -0.00000363   -0.00000000
     atom    3 type  5   force =    -0.00000000    0.00000796    0.00000000
     atom    4 type  5   force =    -0.00000000    0.00001308    0.00000000
     atom    5 type  5   force =    -0.00000000   -0.00000373    0.00000000
     atom    6 type  5   force =    -0.00000000   -0.00001480    0.00000000
     atom    7 type  5   force =    -0.00000000    0.00001107    0.00000000
     atom    8 type  7   force =    -0.00000242   -0.00000096    0.00000936
     atom    9 type  7   force =     0.00000242   -0.00000096   -0.00000936
     atom   10 type  7   force =    -0.00000042    0.00000306   -0.00000426
     atom   11 type  7   force =     0.00000042    0.00000306    0.00000426
     atom   12 type  7   force =     0.00000003    0.00000015    0.00000580
     atom   13 type  7   force =    -0.00000003    0.00000015   -0.00000580
     atom   14 type  1   force =    -0.00000087   -0.00000081   -0.00001017
     atom   15 type  1   force =     0.00000087   -0.00000081    0.00001017
     atom   16 type  6   force =    -0.00000563    0.00000696    0.00001883
     atom   17 type  6   force =     0.00000563    0.00000696   -0.00001883
     atom   18 type  6   force =    -0.00000154    0.00000614   -0.00001169
     atom   19 type  6   force =     0.00000154    0.00000614    0.00001169
     atom   20 type  6   force =    -0.00000084   -0.00000109    0.00001659
     atom   21 type  6   force =     0.00000084   -0.00000109   -0.00001659
     atom   22 type  6   force =    -0.00001024   -0.00000867   -0.00002509
     atom   23 type  6   force =     0.00001024   -0.00000867    0.00002509
     atom   24 type  6   force =     0.00000284    0.00000295    0.00001298
     atom   25 type  6   force =    -0.00000284    0.00000295   -0.00001298
     atom   26 type  6   force =     0.00000104    0.00000722    0.00000941
     atom   27 type  6   force =    -0.00000104    0.00000722   -0.00000941
     atom   28 type  6   force =    -0.00000399    0.00000304   -0.00000114
     atom   29 type  6   force =     0.00000399    0.00000304    0.00000114
     atom   30 type  6   force =    -0.00000512    0.00000181   -0.00000013
     atom   31 type  6   force =     0.00000512    0.00000181    0.00000013
     atom   32 type  6   force =     0.00000235   -0.00000827    0.00000206
     atom   33 type  6   force =    -0.00000235   -0.00000827   -0.00000206
     atom   34 type  6   force =     0.00000765   -0.00000386   -0.00001216
     atom   35 type  6   force =    -0.00000765   -0.00000386    0.00001216
     atom   36 type  6   force =    -0.00000297   -0.00001620    0.00001063
     atom   37 type  6   force =     0.00000297   -0.00001620   -0.00001063
     atom   38 type  6   force =     0.00000126    0.00001066    0.00000402
     atom   39 type  6   force =    -0.00000126    0.00001066   -0.00000402
     atom   40 type  3   force =    -0.00000034   -0.00000184   -0.00000049
     atom   41 type  3   force =     0.00000034   -0.00000184    0.00000049
     atom   42 type  3   force =     0.00000018    0.00000155   -0.00000150
     atom   43 type  3   force =    -0.00000018    0.00000155    0.00000150
     atom   44 type  2   force =    -0.00000000   -0.00003663    0.00000000

     DFT-D3 dispersion contribution to forces:
     atom    1 type  4   force =     0.00000000    0.00078737   -0.00000000
     atom    2 type  4   force =    -0.00000000   -0.00050069    0.00000000
     atom    3 type  5   force =    -0.00000000    0.00068012    0.00000000
     atom    4 type  5   force =    -0.00000000   -0.00154965   -0.00000000
     atom    5 type  5   force =     0.00000000   -0.00081898    0.00000000
     atom    6 type  5   force =     0.00000000    0.00116433   -0.00000000
     atom    7 type  5   force =     0.00000000   -0.00003820   -0.00000000
     atom    8 type  7   force =    -0.00002621   -0.00004206   -0.00007266
     atom    9 type  7   force =     0.00002621   -0.00004206    0.00007266
     atom   10 type  7   force =     0.00005208   -0.00003961    0.00014154
     atom   11 type  7   force =    -0.00005208   -0.00003961   -0.00014154
     atom   12 type  7   force =    -0.00014966    0.00012732   -0.00017053
     atom   13 type  7   force =     0.00014966    0.00012732    0.00017053
     atom   14 type  1   force =     0.00000655    0.00007346   -0.00100349
     atom   15 type  1   force =    -0.00000655    0.00007346    0.00100349
     atom   16 type  6   force =     0.00000131   -0.00001338    0.00048523
     atom   17 type  6   force =    -0.00000131   -0.00001338   -0.00048523
     atom   18 type  6   force =    -0.00000929    0.00001924   -0.00037502
     atom   19 type  6   force =     0.00000929    0.00001924    0.00037502
     atom   20 type  6   force =    -0.00000467   -0.00005557    0.00041435
     atom   21 type  6   force =     0.00000467   -0.00005557   -0.00041435
     atom   22 type  6   force =     0.00003742   -0.00003497    0.00008190
     atom   23 type  6   force =    -0.00003742   -0.00003497   -0.00008190
     atom   24 type  6   force =    -0.00021233    0.00105593    0.00021056
     atom   25 type  6   force =     0.00021233    0.00105593   -0.00021056
     atom   26 type  6   force =     0.00084649    0.00008819    0.00019941
     atom   27 type  6   force =    -0.00084648    0.00008819   -0.00019940
     atom   28 type  6   force =     0.00036285   -0.00051478   -0.00010028
     atom   29 type  6   force =    -0.00036285   -0.00051478    0.00010028
     atom   30 type  6   force =    -0.00023543    0.00033470    0.00010626
     atom   31 type  6   force =     0.00023543    0.00033470   -0.00010625
     atom   32 type  6   force =     0.00093994   -0.00045969    0.00043124
     atom   33 type  6   force =    -0.00093994   -0.00045969   -0.00043124
     atom   34 type  6   force =     0.00072366   -0.00067965   -0.00032502
     atom   35 type  6   force =    -0.00072365   -0.00067965    0.00032502
     atom   36 type  6   force =     0.00007750    0.00013388   -0.00052237
     atom   37 type  6   force =    -0.00007750    0.00013388    0.00052237
     atom   38 type  6   force =     0.00002621    0.00004513   -0.00048248
     atom   39 type  6   force =    -0.00002621    0.00004513    0.00048248
     atom   40 type  3   force =     0.00020299    0.00044205   -0.00013414
     atom   41 type  3   force =    -0.00020299    0.00044205    0.00013414
     atom   42 type  3   force =     0.00008829   -0.00051831   -0.00022988
     atom   43 type  3   force =    -0.00008829   -0.00051831    0.00022988
     atom   44 type  2   force =    -0.00000000    0.00035194   -0.00000000

     Total force =     0.000678     Total SCF correction =     0.000091

     DFT-D3 dispersion Force =     0.004617
     SCF correction compared to forces is large: reduce conv_thr to get better values

     Computing stress (Cartesian axis) and pressure

          total   stress  (Ry/bohr**3)                   (kbar)     P=        0.13
   0.00000095   0.00000000   0.00000011            0.14        0.00        0.02
   0.00000000   0.00000126   0.00000000            0.00        0.18        0.00
   0.00000011   0.00000000   0.00000037            0.02        0.00        0.05

     kinetic stress (kbar)  20400.91      0.00     -4.12
                                0.00  20389.07      0.00
                               -4.12      0.00  20109.37

     local   stress (kbar) -42462.29      0.00    -60.35
                                0.00 -41903.08     -0.00
                              -60.35     -0.00  20915.85

     nonloc. stress (kbar)   3839.08      0.00     -4.55
                                0.00   3839.41      0.00
                               -4.55      0.00   3824.00

     hartree stress (kbar)  23859.18     -0.00     23.67
                               -0.00  23582.48     -0.00
                               23.67     -0.00  -7136.11

     exc-cor stress (kbar)  -2854.83      0.00      0.18
                                0.00  -2854.76      0.00
                                0.18      0.00  -2851.73

     corecor stress (kbar)  -1882.41     -0.00      0.25
                               -0.00  -1882.44     -0.00
                                0.25     -0.00  -1884.06

     ewald   stress (kbar)   -884.34     -0.00     44.86
                               -0.00  -1155.28      0.00
                               44.86      0.00 -32966.13

     hubbard stress (kbar)      0.00      0.00      0.00
                                0.00      0.00      0.00
                                0.00      0.00      0.00

     DFT-D   stress (kbar)    -15.17     -0.00      0.06
                               -0.00    -15.21      0.00
                                0.06      0.00    -11.14

     XDM     stress (kbar)      0.00      0.00      0.00
                                0.00      0.00      0.00
                                0.00      0.00      0.00

     dft-nl  stress (kbar)      0.00      0.00      0.00
                                0.00      0.00      0.00
                                0.00      0.00      0.00

     TS-vdW  stress (kbar)      0.00      0.00      0.00
                                0.00      0.00      0.00
                                0.00      0.00      0.00

     MDB     stress (kbar)      0.00      0.00      0.00
                                0.00      0.00      0.00
                                0.00      0.00      0.00

     3D-RISM stress (kbar)      0.00      0.00      0.00
                                0.00      0.00      0.00
                                0.00      0.00      0.00

     Writing all to output data dir ./temp/phl-fe1-fe2-nspin.save/ :
     XML data file, charge density, pseudopotentials, collected wavefunctions

     General routines

     Parallel routines

     PAW routines

   This run was terminated on:  20:34:35   6Feb2025

   JOB DONE.