     Program PWSCF v.7.3.1 starts on  2Apr2025 at  7:17:27

     Reading input from vc_relax.in

     Current dimensions of program PWSCF are:
     Max number of different atomic species (ntypx) = 10
     Max number of k-points (npk) =  40000
     Max angular momentum in pseudopotentials (lmaxx) =  4
     file Al.pbe-n-kjpaw_psl.1.0.0.UPF: wavefunction(s)  3S 3P renormalized
     file Ti.pbe-spn-kjpaw_psl.1.0.0.UPF: wavefunction(s)  3S 3P 3D renormalized
     file H.pbe-kjpaw_psl.1.0.0.UPF: wavefunction(s)  1S renormalized
     file K.pbe-spn-kjpaw_psl.1.0.0.UPF: wavefunction(s)  3S renormalized
     file Mg.pbe-spnl-kjpaw_psl.1.0.0.UPF: wavefunction(s)  2P renormalized
     file O.pbe-n-kjpaw_psl.1.0.0.UPF: wavefunction(s)  2S 2P renormalized
     file Si.pbe-n-kjpaw_psl.1.0.0.UPF: wavefunction(s)  3S 3P renormalized

     R & G space division:  proc/nbgrp/npool/nimage =       6
     Subspace diagonalization in iterative solution of the eigenvalue problem:
     a serial algorithm will be used

     Using Slab Decomposition

     bravais-lattice index     =          -12
     lattice parameter (alat)  =      10.0639  a.u.
     unit-cell volume          =    3408.7535 (a.u.)^3
     number of atoms/cell      =           43
     number of atomic types    =            7
     number of electrons       =       248.00
     number of Kohn-Sham states=          149
     kinetic-energy cutoff     =      60.0000  Ry
     charge density cutoff     =     480.0000  Ry
     scf convergence threshold =      1.0E-06
     mixing beta               =       0.7000
     number of iterations used =            8  plain     mixing
     energy convergence thresh.=      1.0E-04
     force convergence thresh. =      1.0E-03
     press convergence thresh. =      5.0E-01
     Exchange-correlation= SLA  PW   PBX  PBC
                           (   1   4   3   4   0   0   0)
     nstep                     =           50

     celldm(1)=  10.063938  celldm(2)=   1.736001  celldm(3)=   1.956921
     celldm(4)=   0.000000  celldm(5)=  -0.175986  celldm(6)=   0.000000

     crystal axes: (cart. coord. in units of alat)
               a(1) = (   1.000000   0.000000   0.000000 )
               a(2) = (   0.000000   1.736001   0.000000 )
               a(3) = (  -0.344390   0.000000   1.926379 )

     reciprocal axes: (cart. coord. in units 2 pi/alat)
               b(1) = (  1.000000 -0.000000  0.178776 )
               b(2) = (  0.000000  0.576037 -0.000000 )
               b(3) = (  0.000000  0.000000  0.519109 )

     PseudoPot. # 1 for Al read from file:
     ./../../../pseudos/Al.pbe-n-kjpaw_psl.1.0.0.UPF
     MD5 check sum: 502b6b27b9c6270cab5dd1084b96fa6d
     Pseudo is Projector augmented-wave + core cor, Zval =  3.0
     Generated using &quot;atomic&quot; code by A. Dal Corso  v.6.3
     Shape of augmentation charge: PSQ
     Using radial grid of 1135 points,  6 beta functions with:
                l(1) =   0
                l(2) =   0
                l(3) =   1
                l(4) =   1
                l(5) =   2
                l(6) =   2
     Q(r) pseudized with 0 coefficients

     PseudoPot. # 2 for Ti read from file:
     ./../../../pseudos/Ti.pbe-spn-kjpaw_psl.1.0.0.UPF
     MD5 check sum: 01f69b0d8ba4438b2e03ac6ea4af1c0b
     Pseudo is Projector augmented-wave + core cor, Zval = 12.0
     Generated using &quot;atomic&quot; code by A. Dal Corso  v.6.2.2
     Shape of augmentation charge: PSQ
     Using radial grid of 1177 points,  6 beta functions with:
                l(1) =   0
                l(2) =   0
                l(3) =   1
                l(4) =   1
                l(5) =   2
                l(6) =   2
     Q(r) pseudized with 0 coefficients

     PseudoPot. # 3 for H  read from file:
     ./../../../pseudos/H.pbe-kjpaw_psl.1.0.0.UPF
     MD5 check sum: d81a744832360e4a8af0b0b5b123bc2a
     Pseudo is Projector augmented-wave, Zval =  1.0
     Generated using &quot;atomic&quot; code by A. Dal Corso  v.6.3MaX
     Shape of augmentation charge: PSQ
     Using radial grid of  929 points,  2 beta functions with:
                l(1) =   0
                l(2) =   0
     Q(r) pseudized with 0 coefficients

     PseudoPot. # 4 for K  read from file:
     ./../../../pseudos/K.pbe-spn-kjpaw_psl.1.0.0.UPF
     MD5 check sum: 34cc42130a09071ebe376fd42eb21491
     Pseudo is Projector augmented-wave + core cor, Zval =  9.0
     Generated using &quot;atomic&quot; code by A. Dal Corso  v.6.2.2
     Shape of augmentation charge: PSQ
     Using radial grid of 1165 points,  6 beta functions with:
                l(1) =   0
                l(2) =   0
                l(3) =   1
                l(4) =   1
                l(5) =   2
                l(6) =   2
     Q(r) pseudized with 0 coefficients

     PseudoPot. # 5 for Mg read from file:
     ./../../../pseudos/Mg.pbe-spnl-kjpaw_psl.1.0.0.UPF
     MD5 check sum: fda14e0d92a6a9a5ebed782e5a4b3067
     Pseudo is Projector augmented-wave + core cor, Zval = 10.0
     Generated using &quot;atomic&quot; code by A. Dal Corso  v.6.3
     Shape of augmentation charge: PSQ
     Using radial grid of 1129 points,  4 beta functions with:
                l(1) =   0
                l(2) =   0
                l(3) =   1
                l(4) =   1
     Q(r) pseudized with 0 coefficients

     PseudoPot. # 6 for O  read from file:
     ./../../../pseudos/O.pbe-n-kjpaw_psl.1.0.0.UPF
     MD5 check sum: e99d9cef9b487d1ca56f5b95ecd0fd7a
     Pseudo is Projector augmented-wave + core cor, Zval =  6.0
     Generated using &quot;atomic&quot; code by A. Dal Corso  v.6.3
     Shape of augmentation charge: PSQ
     Using radial grid of 1095 points,  4 beta functions with:
                l(1) =   0
                l(2) =   0
                l(3) =   1
                l(4) =   1
     Q(r) pseudized with 0 coefficients

     PseudoPot. # 7 for Si read from file:
     ./../../../pseudos/Si.pbe-n-kjpaw_psl.1.0.0.UPF
     MD5 check sum: c39c59da582df4a0d9f10159256ea34e
     Pseudo is Projector augmented-wave + core cor, Zval =  4.0
     Generated using &quot;atomic&quot; code by A. Dal Corso  v.6.3
     Shape of augmentation charge: PSQ
     Using radial grid of 1141 points,  6 beta functions with:
                l(1) =   0
                l(2) =   0
                l(3) =   1
                l(4) =   1
                l(5) =   2
                l(6) =   2
     Q(r) pseudized with 0 coefficients

     atomic species   valence    mass     pseudopotential
     Al                3.00    26.98154     Al( 1.00)
     Ti               12.00    47.86700     Ti( 1.00)
     H                 1.00     1.00794     H ( 1.00)
     K                 9.00    39.09830     K ( 1.00)
     Mg               10.00    24.30500     Mg( 1.00)
     O                 6.00    15.99940     O ( 1.00)
     Si                4.00    28.08550     Si( 1.00)

     Starting magnetic structure
     atomic species   magnetization
     Al              0.000
     Ti              0.300
     H               0.000
     K               0.000
     Mg              0.000
     O               0.000
     Si              0.000

      2 Sym. Ops. (no inversion) found

                                    s                        frac. trans.

      isym =  1     identity

 cryst.   s( 1) = (     1          0          0      )
                  (     0          1          0      )
                  (     0          0          1      )

 cart.    s( 1) = (  1.0000000  0.0000000  0.0000000 )
                  (  0.0000000  1.0000000  0.0000000 )
                  (  0.0000000  0.0000000  1.0000000 )

      isym =  2     180 deg rotation - cart. axis [0,1,0]

[...]

     point group C_2  (2)
     there are  2 classes
     the character table:

       E     C2
A      1.00  1.00
B      1.00 -1.00

     the symmetry operations in each class and the name of the first element:

     E        1
          identity
     C2       2
          180 deg rotation - cart. axis [0,1,0]

   Cartesian axes

     site n.     atom                  positions (alat units)
         1        K      tau(   1) = (   0.0000000   0.8633857   0.0000000  )
         2        K      tau(   2) = (   0.5000001   0.0131549   0.0000000  )
         3        Mg     tau(   3) = (  -0.1721948   1.7347799   0.9631892  )
         4        Mg     tau(   4) = (  -0.1721948   1.1557135   0.9631892  )
         5        Mg     tau(   5) = (   0.3278053   1.4348965   0.9631892  )
         6        Mg     tau(   6) = (   0.3278053   0.2972713   0.9631892  )
         7        Si     tau(   7) = (   0.0088712   0.2890249   0.4340788  )
         8        Si     tau(   8) = (   0.6467394   0.2890249   1.4922996  )
         9        Si     tau(   9) = (   0.6629300   1.4448361   1.4808067  )
        10        Si     tau(  10) = (  -0.0073194   1.4448361   0.4455715  )
        11        Si     tau(  11) = (   0.4956512   1.1609033   0.4446526  )
        12        Si     tau(  12) = (   0.1599594   1.1609033   1.4817258  )
        13        Al     tau(  13) = (   0.1377807   0.5776410   1.4913005  )
        14        Al     tau(  14) = (   0.5178299   0.5776410   0.4350779  )
        15        O      tau(  15) = (  -0.0074669   0.2971620   0.7456970  )
        16        O      tau(  16) = (   0.6630774   0.2971620   1.1806813  )
        17        O      tau(  17) = (   0.6620406   1.4429344   1.1757984  )
        18        O      tau(  18) = (  -0.0064300   1.4429344   0.7505800  )
        19        O      tau(  19) = (   0.5050147   1.1736506   0.7461841  )
        20        O      tau(  20) = (   0.1505958   1.1736506   1.1801942  )
        21        O      tau(  21) = (   0.1214868   0.5600203   1.1597425  )
        22        O      tau(  22) = (   0.5341238   0.5600203   0.7666357  )
        23        O      tau(  23) = (   0.2879887   0.3609046   0.3366838  )
        24        O      tau(  24) = (   0.3676219   0.3609046   1.5896945  )
        25        O      tau(  25) = (  -0.0464812   1.7320335   0.3382567  )
        26        O      tau(  26) = (   0.7020918   1.7320335   1.5881216  )
        27        O      tau(  27) = (   0.3943380   1.3394457   1.5941385  )
        28        O      tau(  28) = (   0.2612726   1.3394457   0.3322399  )
        29        O      tau(  29) = (   0.7591750   1.2822938   0.3229805  )
        30        O      tau(  30) = (  -0.1035645   1.2822938   1.6033979  )
        31        O      tau(  31) = (   0.4576325   0.8828982   0.3262014  )
        32        O      tau(  32) = (   0.1979780   0.8828982   1.6001769  )
        33        O      tau(  33) = (  -0.1435995   0.4656370   1.6230399  )
        34        O      tau(  34) = (   0.7992102   0.4656370   0.3033384  )
        35        O      tau(  35) = (  -0.0189248   0.8557766   0.7559132  )
        36        O      tau(  36) = (   0.6745354   0.8557766   1.1704652  )
        37        O      tau(  37) = (   0.4951839   0.0012396   0.7752371  )
        38        O      tau(  38) = (   0.1604267   0.0012396   1.1511414  )
        39        H      tau(  39) = (   0.1639775   0.8659265   0.7743947  )
        40        H      tau(  40) = (   0.4916331   0.8659265   1.1519836  )
[...]
     atom   40 type  3   force =     3.38420947   -0.22831834   -1.03819352
     atom   41 type  3   force =    -0.03174872   -0.24361717    5.22696276
     atom   42 type  3   force =     0.03172793   -0.24361835   -5.22696687
     atom   43 type  2   force =    -0.00019172   -4.48479676    0.00022140
     The core correction contribution to forces
     atom    1 type  4   force =     0.00000000   -0.00097641   -0.00000000
     atom    2 type  4   force =     0.00000097    0.00120810   -0.00000000
     atom    3 type  5   force =    -0.00000140   -0.00015034    0.00000144
     atom    4 type  5   force =    -0.00000140    0.00004811    0.00000144
     atom    5 type  5   force =    -0.00000214   -0.00017710    0.00000144
     atom    6 type  5   force =    -0.00000214   -0.00019991    0.00000144
     atom    7 type  7   force =     0.00154911    0.01052619   -0.00207777
     atom    8 type  7   force =    -0.00154795    0.01052620    0.00207728
     atom    9 type  7   force =     0.00077617    0.00142603   -0.01201047
     atom   10 type  7   force =    -0.00077531    0.00142602    0.01200964
     atom   11 type  7   force =    -0.00010220   -0.00946796    0.01672563
     atom   12 type  7   force =     0.00010280   -0.00946788   -0.01672645
     atom   13 type  1   force =    -0.00167017   -0.00321909   -0.00249241
     atom   14 type  1   force =     0.00167083   -0.00321909    0.00249191
     atom   15 type  6   force =     0.00007507   -0.00058301    0.00580267
     atom   16 type  6   force =    -0.00007477   -0.00058305   -0.00580265
     atom   17 type  6   force =    -0.00003581   -0.00000280   -0.00688868
     atom   18 type  6   force =     0.00003614   -0.00000279    0.00688866
     atom   19 type  6   force =    -0.00059614   -0.00128061    0.00776575
     atom   20 type  6   force =     0.00059643   -0.00128064   -0.00776581
     atom   21 type  6   force =     0.00140125    0.00098709   -0.00306313
     atom   22 type  6   force =    -0.00140102    0.00098707    0.00306300
     atom   23 type  6   force =     0.00479856   -0.00187326   -0.00537409
     atom   24 type  6   force =    -0.00479852   -0.00187318    0.00537389
     atom   25 type  6   force =    -0.00325373    0.00047406   -0.00676440
     atom   26 type  6   force =     0.00325412    0.00047406    0.00676412
     atom   27 type  6   force =    -0.00179755    0.00209609    0.00739671
     atom   28 type  6   force =     0.00179756    0.00209625   -0.00739690
     atom   29 type  6   force =     0.00045937   -0.00184124   -0.00796536
     atom   30 type  6   force =    -0.00045935   -0.00184106    0.00796516
     atom   31 type  6   force =    -0.00252772   -0.00300971   -0.00637199
     atom   32 type  6   force =     0.00252803   -0.00300973    0.00637177
     atom   33 type  6   force =     0.00129412    0.00368566    0.00718209
     atom   34 type  6   force =    -0.00129393    0.00368575   -0.00718234
     atom   35 type  6   force =    -0.01072651    0.00110988   -0.00563534
     atom   36 type  6   force =     0.01072633    0.00110995    0.00563508
     atom   37 type  6   force =    -0.00081960   -0.00136046    0.01116649
     atom   38 type  6   force =     0.00082010   -0.00136042   -0.01116631
     atom   39 type  3   force =     0.00000000    0.00000000    0.00000000
     atom   40 type  3   force =     0.00000000    0.00000000    0.00000000
     atom   41 type  3   force =     0.00000000    0.00000000    0.00000000
     atom   42 type  3   force =     0.00000000    0.00000000    0.00000000
     atom   43 type  2   force =     0.00000466   -0.00471450   -0.00000479
     The Hubbard contrib.    to forces
     atom    1 type  4   force =     0.00000000    0.00000000    0.00000000
     atom    2 type  4   force =     0.00000000    0.00000000    0.00000000
     atom    3 type  5   force =     0.00000000    0.00000000    0.00000000
     atom    4 type  5   force =     0.00000000    0.00000000    0.00000000
     atom    5 type  5   force =     0.00000000    0.00000000    0.00000000
     atom    6 type  5   force =     0.00000000    0.00000000    0.00000000
     atom    7 type  7   force =     0.00000000    0.00000000    0.00000000
     atom    8 type  7   force =     0.00000000    0.00000000    0.00000000
     atom    9 type  7   force =     0.00000000    0.00000000    0.00000000
     atom   10 type  7   force =     0.00000000    0.00000000    0.00000000
     atom   11 type  7   force =     0.00000000    0.00000000    0.00000000
     atom   12 type  7   force =     0.00000000    0.00000000    0.00000000
     atom   13 type  1   force =     0.00000000    0.00000000    0.00000000
     atom   14 type  1   force =     0.00000000    0.00000000    0.00000000
     atom   15 type  6   force =     0.00000000    0.00000000    0.00000000
     atom   16 type  6   force =     0.00000000    0.00000000    0.00000000
     atom   17 type  6   force =     0.00000000    0.00000000    0.00000000
     atom   18 type  6   force =     0.00000000    0.00000000    0.00000000
     atom   19 type  6   force =     0.00000000    0.00000000    0.00000000
     atom   20 type  6   force =     0.00000000    0.00000000    0.00000000
     atom   21 type  6   force =     0.00000000    0.00000000    0.00000000
     atom   22 type  6   force =     0.00000000    0.00000000    0.00000000
     atom   23 type  6   force =     0.00000000    0.00000000    0.00000000
     atom   24 type  6   force =     0.00000000    0.00000000    0.00000000
     atom   25 type  6   force =     0.00000000    0.00000000    0.00000000
     atom   26 type  6   force =     0.00000000    0.00000000    0.00000000
     atom   27 type  6   force =     0.00000000    0.00000000    0.00000000
     atom   28 type  6   force =     0.00000000    0.00000000    0.00000000
     atom   29 type  6   force =     0.00000000    0.00000000    0.00000000
     atom   30 type  6   force =     0.00000000    0.00000000    0.00000000
     atom   31 type  6   force =     0.00000000    0.00000000    0.00000000
     atom   32 type  6   force =     0.00000000    0.00000000    0.00000000
     atom   33 type  6   force =     0.00000000    0.00000000    0.00000000
     atom   34 type  6   force =     0.00000000    0.00000000    0.00000000
     atom   35 type  6   force =     0.00000000    0.00000000    0.00000000
     atom   36 type  6   force =     0.00000000    0.00000000    0.00000000
     atom   37 type  6   force =     0.00000000    0.00000000    0.00000000
     atom   38 type  6   force =     0.00000000    0.00000000    0.00000000
     atom   39 type  3   force =     0.00000000    0.00000000    0.00000000
     atom   40 type  3   force =     0.00000000    0.00000000    0.00000000
     atom   41 type  3   force =     0.00000000    0.00000000    0.00000000
     atom   42 type  3   force =     0.00000000    0.00000000    0.00000000
     atom   43 type  2   force =     0.00000000    0.00000000    0.00000000
     The SCF correction term to forces
     atom    1 type  4   force =     0.00000000   -0.00000613   -0.00000000
     atom    2 type  4   force =    -0.00000000    0.00000376   -0.00000000
     atom    3 type  5   force =    -0.00000000    0.00002940    0.00000000
     atom    4 type  5   force =    -0.00000000   -0.00002234    0.00000000
     atom    5 type  5   force =    -0.00000000    0.00000882    0.00000000
     atom    6 type  5   force =    -0.00000000    0.00001845    0.00000000
     atom    7 type  7   force =    -0.00000184    0.00000551    0.00001121
     atom    8 type  7   force =     0.00000184    0.00000551   -0.00001121
     atom    9 type  7   force =     0.00000035   -0.00000050   -0.00000420
     atom   10 type  7   force =    -0.00000035   -0.00000050    0.00000420
     atom   11 type  7   force =     0.00000059   -0.00000351    0.00000326
     atom   12 type  7   force =    -0.00000059   -0.00000351   -0.00000326
     atom   13 type  1   force =    -0.00000157    0.00000101   -0.00000374
     atom   14 type  1   force =     0.00000157    0.00000101    0.00000374
     atom   15 type  6   force =    -0.00001007    0.00001748    0.00002065
     atom   16 type  6   force =     0.00001007    0.00001748   -0.00002065
     atom   17 type  6   force =    -0.00000026    0.00000306    0.00001085
     atom   18 type  6   force =     0.00000026    0.00000306   -0.00001085
     atom   19 type  6   force =     0.00000210   -0.00000343   -0.00000836
     atom   20 type  6   force =    -0.00000210   -0.00000343    0.00000836
     atom   21 type  6   force =    -0.00001677   -0.00000074   -0.00001349
     atom   22 type  6   force =     0.00001677   -0.00000074    0.00001349
     atom   23 type  6   force =     0.00000012    0.00000516    0.00000448
     atom   24 type  6   force =    -0.00000012    0.00000516   -0.00000448
     atom   25 type  6   force =     0.00000073   -0.00000323    0.00000925
     atom   26 type  6   force =    -0.00000073   -0.00000323   -0.00000925
     atom   27 type  6   force =    -0.00000025   -0.00000154   -0.00001069
     atom   28 type  6   force =     0.00000025   -0.00000154    0.00001069
     atom   29 type  6   force =    -0.00000102   -0.00000149    0.00001106
     atom   30 type  6   force =     0.00000102   -0.00000149   -0.00001106
     atom   31 type  6   force =     0.00000135   -0.00000635    0.00000176
     atom   32 type  6   force =    -0.00000135   -0.00000635   -0.00000176
     atom   33 type  6   force =     0.00000138    0.00000595   -0.00000588
     atom   34 type  6   force =    -0.00000138    0.00000595    0.00000588
     atom   35 type  6   force =    -0.00001476   -0.00002129    0.00000793
     atom   36 type  6   force =     0.00001476   -0.00002129   -0.00000793
     atom   37 type  6   force =     0.00000119    0.00000552    0.00000002
     atom   38 type  6   force =    -0.00000119    0.00000552   -0.00000002
     atom   39 type  3   force =    -0.00000150   -0.00000199    0.00000054
     atom   40 type  3   force =     0.00000150   -0.00000199   -0.00000054
     atom   41 type  3   force =     0.00000015    0.00000044    0.00000088
     atom   42 type  3   force =    -0.00000015    0.00000044   -0.00000088
     atom   43 type  2   force =    -0.00000000   -0.00001515    0.00000000

     DFT-D3 dispersion contribution to forces:
     atom    1 type  4   force =     0.00000001    0.00065923   -0.00000000
     atom    2 type  4   force =     0.00000000   -0.00074163    0.00000000
     atom    3 type  5   force =    -0.00000000   -0.00015481    0.00000000
     atom    4 type  5   force =    -0.00000000   -0.00146597   -0.00000000
     atom    5 type  5   force =     0.00000000   -0.00021452    0.00000000
     atom    6 type  5   force =     0.00000000    0.00039661   -0.00000000
     atom    7 type  7   force =     0.00004774   -0.00032345   -0.00053158
     atom    8 type  7   force =    -0.00004773   -0.00032345    0.00053158
     atom    9 type  7   force =     0.00000270    0.00033735    0.00048377
     atom   10 type  7   force =    -0.00000269    0.00033735   -0.00048377
     atom   11 type  7   force =    -0.00032695   -0.00038888    0.00068336
     atom   12 type  7   force =     0.00032695   -0.00038888   -0.00068337
     atom   13 type  1   force =     0.00032706    0.00045912   -0.00184057
     atom   14 type  1   force =    -0.00032706    0.00045912    0.00184058
     atom   15 type  6   force =     0.00017433   -0.00027074    0.00032707
     atom   16 type  6   force =    -0.00017433   -0.00027074   -0.00032708
     atom   17 type  6   force =    -0.00005418    0.00015530   -0.00038853
     atom   18 type  6   force =     0.00005418    0.00015530    0.00038853
     atom   19 type  6   force =    -0.00011194    0.00007319    0.00058440
     atom   20 type  6   force =     0.00011194    0.00007319   -0.00058440
     atom   21 type  6   force =     0.00039578    0.00010885    0.00001067
     atom   22 type  6   force =    -0.00039578    0.00010885   -0.00001067
     atom   23 type  6   force =    -0.00020710    0.00096286    0.00020305
     atom   24 type  6   force =     0.00020710    0.00096286   -0.00020306
     atom   25 type  6   force =     0.00080415    0.00005912    0.00017282
     atom   26 type  6   force =    -0.00080416    0.00005913   -0.00017282
     atom   27 type  6   force =     0.00035821   -0.00050549   -0.00008247
     atom   28 type  6   force =    -0.00035821   -0.00050549    0.00008247
     atom   29 type  6   force =    -0.00026471    0.00052907    0.00011339
     atom   30 type  6   force =     0.00026471    0.00052907   -0.00011338
     atom   31 type  6   force =     0.00074806   -0.00047855    0.00052985
     atom   32 type  6   force =    -0.00074807   -0.00047855   -0.00052985
     atom   33 type  6   force =     0.00054146   -0.00056781   -0.00027727
     atom   34 type  6   force =    -0.00054146   -0.00056781    0.00027726
     atom   35 type  6   force =     0.00041832    0.00022591   -0.00031733
     atom   36 type  6   force =    -0.00041832    0.00022591    0.00031733
     atom   37 type  6   force =     0.00009893    0.00002999   -0.00058523
     atom   38 type  6   force =    -0.00009893    0.00003000    0.00058523
     atom   39 type  3   force =     0.00093144   -0.00022631    0.00011727
     atom   40 type  3   force =    -0.00093144   -0.00022632   -0.00011727
     atom   41 type  3   force =    -0.00002217   -0.00036639   -0.00029674
     atom   42 type  3   force =     0.00002217   -0.00036639    0.00029673
     atom   43 type  2   force =    -0.00000000    0.00189482   -0.00000000

     Total force =     0.003557     Total SCF correction =     0.000090

     DFT-D3 dispersion Force =     0.005586

     Computing stress (Cartesian axis) and pressure

          total   stress  (Ry/bohr**3)                   (kbar)     P=        0.13
   0.00000100   0.00000000  -0.00000155            0.15        0.00       -0.23
   0.00000000   0.00000315   0.00000000            0.00        0.46        0.00
  -0.00000155   0.00000000  -0.00000159           -0.23        0.00       -0.23

     kinetic stress (kbar)  18398.38      0.00     -2.71
                                0.00  18539.64      0.00
                               -2.71      0.00  18392.08

     local   stress (kbar) -29905.21      0.00   -709.23
                                0.00 -27781.62     -0.00
                             -709.23     -0.00   7197.01

     nonloc. stress (kbar)   3891.05      0.00     -4.46
                                0.00   3908.17      0.00
                               -4.46      0.00   3896.30

     hartree stress (kbar)  16500.98      0.00    259.79
                                0.00  15653.14      0.00
                              259.79      0.00  -1396.24

     exc-cor stress (kbar)  -2356.65      0.00      1.05
                                0.00  -2360.14      0.00
                                1.05      0.00  -2358.84

     corecor stress (kbar)  -1983.75     -0.00     -0.26
                               -0.00  -1984.29     -0.00
                               -0.26     -0.00  -1985.02

     ewald   stress (kbar)  -4530.32     -0.00    455.40
                               -0.00  -5959.80      0.00
                              455.40      0.00 -23733.96

     hubbard stress (kbar)      0.00      0.00      0.00
                                0.00      0.00      0.00
                                0.00      0.00      0.00

     DFT-D   stress (kbar)    -14.33      0.00      0.17
                                0.00    -14.63     -0.00
                                0.17     -0.00    -11.58

     XDM     stress (kbar)      0.00      0.00      0.00
                                0.00      0.00      0.00
                                0.00      0.00      0.00

     dft-nl  stress (kbar)      0.00      0.00      0.00
                                0.00      0.00      0.00
                                0.00      0.00      0.00

     TS-vdW  stress (kbar)      0.00      0.00      0.00
                                0.00      0.00      0.00
                                0.00      0.00      0.00

     MDB     stress (kbar)      0.00      0.00      0.00
                                0.00      0.00      0.00
                                0.00      0.00      0.00

     3D-RISM stress (kbar)      0.00      0.00      0.00
                                0.00      0.00      0.00
                                0.00      0.00      0.00

     Writing all to output data dir ./temp/phl-ti1-ti2-v4.save/ :
     XML data file, charge density, pseudopotentials, collected wavefunctions

     General routines

     Parallel routines

     PAW routines

   This run was terminated on:  13:40:16   4Apr2025

   JOB DONE.