     Program PWSCF v.7.3.1 starts on 14Jan2025 at 11:43:26

     Reading input from relax.in
Warning: card  &CELL ignored
Warning: card    CELL_DOFREE     = 'IBRAV' ignored
Warning: card  / ignored

     Current dimensions of program PWSCF are:
     Max number of different atomic species (ntypx) = 10
     Max number of k-points (npk) =  40000
     Max angular momentum in pseudopotentials (lmaxx) =  4
     file Al.pbe-n-kjpaw_psl.1.0.0.UPF: wavefunction(s)  3S 3P renormalized
     file Fe.pbe-spn-kjpaw_psl.1.0.0.UPF: wavefunction(s)  3P 3D renormalized
     file H.pbe-kjpaw_psl.1.0.0.UPF: wavefunction(s)  1S renormalized
     file K.pbe-spn-kjpaw_psl.1.0.0.UPF: wavefunction(s)  3S renormalized
     file Mg.pbe-spnl-kjpaw_psl.1.0.0.UPF: wavefunction(s)  2P renormalized
     file O.pbe-n-kjpaw_psl.1.0.0.UPF: wavefunction(s)  2S 2P renormalized
     file Si.pbe-n-kjpaw_psl.1.0.0.UPF: wavefunction(s)  3S 3P renormalized

     R & G space division:  proc/nbgrp/npool/nimage =       6
     Subspace diagonalization in iterative solution of the eigenvalue problem:
     one sub-group per band group will be used

     Using Slab Decomposition

     bravais-lattice index     =          -12
     lattice parameter (alat)  =      10.0136  a.u.
     unit-cell volume          =    3303.4414 (a.u.)^3
     number of atoms/cell      =           44
     number of atomic types    =            7
     number of electrons       =       262.00
     number of Kohn-Sham states=          157
     kinetic-energy cutoff     =      60.0000  Ry
     charge density cutoff     =     480.0000  Ry
     scf convergence threshold =      1.0E-06
     mixing beta               =       0.7000
     number of iterations used =            8  plain     mixing
     energy convergence thresh.=      1.0E-04
     force convergence thresh. =      1.0E-03
     Exchange-correlation= SLA  PW   PBX  PBC
                           (   1   4   3   4   0   0   0)
     nstep                     =           50

     celldm(1)=  10.013640  celldm(2)=   1.735306  celldm(3)=   1.926511
     celldm(4)=   0.000000  celldm(5)=  -0.177565  celldm(6)=   0.000000

     crystal axes: (cart. coord. in units of alat)
               a(1) = (   1.000000   0.000000   0.000000 )
               a(2) = (   0.000000   1.735306   0.000000 )
               a(3) = (  -0.342081   0.000000   1.895896 )

     reciprocal axes: (cart. coord. in units 2 pi/alat)
               b(1) = (  1.000000 -0.000000  0.180432 )
               b(2) = (  0.000000  0.576267 -0.000000 )
               b(3) = (  0.000000  0.000000  0.527455 )

     PseudoPot. # 1 for Al read from file:
     ./../../../pseudos/Al.pbe-n-kjpaw_psl.1.0.0.UPF
     MD5 check sum: 502b6b27b9c6270cab5dd1084b96fa6d
     Pseudo is Projector augmented-wave + core cor, Zval =  3.0
     Generated using &quot;atomic&quot; code by A. Dal Corso  v.6.3
     Shape of augmentation charge: PSQ
     Using radial grid of 1135 points,  6 beta functions with:
                l(1) =   0
                l(2) =   0
                l(3) =   1
                l(4) =   1
                l(5) =   2
                l(6) =   2
     Q(r) pseudized with 0 coefficients

     PseudoPot. # 2 for Fe read from file:
     ./../../../pseudos/Fe.pbe-spn-kjpaw_psl.1.0.0.UPF
     MD5 check sum: fc81f059e5c5069939230b1155715ae8
     Pseudo is Projector augmented-wave + core cor, Zval = 16.0
     Generated using &quot;atomic&quot; code by A. Dal Corso  v.6.3
     Shape of augmentation charge: PSQ
     Using radial grid of 1191 points,  6 beta functions with:
                l(1) =   0
                l(2) =   0
                l(3) =   1
                l(4) =   1
                l(5) =   2
                l(6) =   2
     Q(r) pseudized with 0 coefficients

     PseudoPot. # 3 for H  read from file:
     ./../../../pseudos/H.pbe-kjpaw_psl.1.0.0.UPF
     MD5 check sum: d81a744832360e4a8af0b0b5b123bc2a
     Pseudo is Projector augmented-wave, Zval =  1.0
     Generated using &quot;atomic&quot; code by A. Dal Corso  v.6.3MaX
     Shape of augmentation charge: PSQ
     Using radial grid of  929 points,  2 beta functions with:
                l(1) =   0
                l(2) =   0
     Q(r) pseudized with 0 coefficients

     PseudoPot. # 4 for K  read from file:
     ./../../../pseudos/K.pbe-spn-kjpaw_psl.1.0.0.UPF
     MD5 check sum: 34cc42130a09071ebe376fd42eb21491
     Pseudo is Projector augmented-wave + core cor, Zval =  9.0
     Generated using &quot;atomic&quot; code by A. Dal Corso  v.6.2.2
     Shape of augmentation charge: PSQ
     Using radial grid of 1165 points,  6 beta functions with:
                l(1) =   0
                l(2) =   0
                l(3) =   1
                l(4) =   1
                l(5) =   2
                l(6) =   2
     Q(r) pseudized with 0 coefficients

     PseudoPot. # 5 for Mg read from file:
     ./../../../pseudos/Mg.pbe-spnl-kjpaw_psl.1.0.0.UPF
     MD5 check sum: fda14e0d92a6a9a5ebed782e5a4b3067
     Pseudo is Projector augmented-wave + core cor, Zval = 10.0
     Generated using &quot;atomic&quot; code by A. Dal Corso  v.6.3
     Shape of augmentation charge: PSQ
     Using radial grid of 1129 points,  4 beta functions with:
                l(1) =   0
                l(2) =   0
                l(3) =   1
                l(4) =   1
     Q(r) pseudized with 0 coefficients

     PseudoPot. # 6 for O  read from file:
     ./../../../pseudos/O.pbe-n-kjpaw_psl.1.0.0.UPF
     MD5 check sum: e99d9cef9b487d1ca56f5b95ecd0fd7a
     Pseudo is Projector augmented-wave + core cor, Zval =  6.0
     Generated using &quot;atomic&quot; code by A. Dal Corso  v.6.3
     Shape of augmentation charge: PSQ
     Using radial grid of 1095 points,  4 beta functions with:
                l(1) =   0
                l(2) =   0
                l(3) =   1
                l(4) =   1
     Q(r) pseudized with 0 coefficients

     PseudoPot. # 7 for Si read from file:
     ./../../../pseudos/Si.pbe-n-kjpaw_psl.1.0.0.UPF
     MD5 check sum: c39c59da582df4a0d9f10159256ea34e
     Pseudo is Projector augmented-wave + core cor, Zval =  4.0
     Generated using &quot;atomic&quot; code by A. Dal Corso  v.6.3
     Shape of augmentation charge: PSQ
     Using radial grid of 1141 points,  6 beta functions with:
                l(1) =   0
                l(2) =   0
                l(3) =   1
                l(4) =   1
                l(5) =   2
                l(6) =   2
     Q(r) pseudized with 0 coefficients

     atomic species   valence    mass     pseudopotential
     Al                3.00    26.98154     Al( 1.00)
     Fe               16.00    55.84500     Fe( 1.00)
     H                 1.00     1.00794     H ( 1.00)
     K                 9.00    39.09830     K ( 1.00)
     Mg               10.00    24.30500     Mg( 1.00)
     O                 6.00    15.99940     O ( 1.00)
     Si                4.00    28.08550     Si( 1.00)

     Starting magnetic structure
     atomic species   magnetization
     Al              0.000
     Fe              0.300
     H               0.000
     K               0.000
     Mg              0.000
     O               0.000
     Si              0.000

      2 Sym. Ops. (no inversion) found

                                    s                        frac. trans.

      isym =  1     identity

 cryst.   s( 1) = (     1          0          0      )
                  (     0          1          0      )
                  (     0          0          1      )

 cart.    s( 1) = (  1.0000000  0.0000000 -0.0000000 )
                  (  0.0000000  1.0000000  0.0000000 )
                  (  0.0000000  0.0000000  1.0000000 )

      isym =  2     180 deg rotation - cart. axis [0,1,0]

 cryst.   s( 2) = (    -1          0          0      )
                  (     0          1          0      )
                  (     0          0         -1      )

 cart.    s( 2) = ( -1.0000000  0.0000000  0.0000000 )
                  (  0.0000000  1.0000000  0.0000000 )
                  (  0.0000000  0.0000000 -1.0000000 )

     point group C_2  (2)
     there are  2 classes
     the character table:

       E     C2
A      1.00  1.00
B      1.00 -1.00

     the symmetry operations in each class and the name of the first element:

     E        1
          identity
     C2       2
          180 deg rotation - cart. axis [0,1,0]

   Cartesian axes

     site n.     atom                  positions (alat units)
         1        K      tau(   1) = (   0.0000000   0.8559224   0.0000000  )
         2        K      tau(   2) = (   0.5000000   0.0093568   0.0000000  )
         3        Mg     tau(   3) = (  -0.1710407   0.0067712   0.9479482  )
         4        Mg     tau(   4) = (  -0.1710407   0.5780843   0.9479482  )
         5        Mg     tau(   5) = (  -0.1710407   1.1543881   0.9479482  )
         6        Mg     tau(   6) = (   0.3289593   0.8562226   0.9479482  )
         7        Mg     tau(   7) = (   0.3289593   1.4480089   0.9479482  )
         8        Si     tau(   8) = (   0.0066674   0.2865251   0.4219393  )
         9        Si     tau(   9) = (   0.6512512   0.2865251   1.4739571  )
        10        Si     tau(  10) = (   0.6701371   1.4476688   1.4628623  )
        11        Si     tau(  11) = (  -0.0122184   1.4476688   0.4330341  )
        12        Si     tau(  12) = (   0.4872056   1.1568454   0.4292651  )
        13        Si     tau(  13) = (   0.1707131   1.1568454   1.4666313  )
        14        Al     tau(  14) = (   0.1506005   0.5746762   1.4713786  )
        15        Al     tau(  15) = (   0.5073182   0.5746762   0.4245178  )
        16        O      tau(  16) = (  -0.0043508   0.2833738   0.7297400  )
        17        O      tau(  17) = (   0.6622695   0.2833738   1.1661564  )
        18        O      tau(  18) = (   0.6658139   1.4451231   1.1576912  )
        19        O      tau(  19) = (  -0.0078952   1.4451231   0.7382052  )
        20        O      tau(  20) = (   0.4926234   1.1618863   0.7357690  )
        21        O      tau(  21) = (   0.1652953   1.1618863   1.1601274  )
        22        O      tau(  22) = (   0.1548298   0.5779784   1.1454267  )
        23        O      tau(  23) = (   0.5030889   0.5779784   0.7504697  )
        24        O      tau(  24) = (   0.2847398   0.3548857   0.3143567  )
        25        O      tau(  25) = (   0.3731789   0.3548857   1.5815397  )
        26        O      tau(  26) = (   0.9404978   1.7303189   0.3181314  )
        27        O      tau(  27) = (  -0.2825791   1.7303189   1.5777650  )
        28        O      tau(  28) = (   0.3988927   1.3439356   1.5754330  )
        29        O      tau(  29) = (   0.2590260   1.3439356   0.3204634  )
        30        O      tau(  30) = (   0.7582660   1.2710892   0.3185125  )
        31        O      tau(  31) = (  -0.1003473   1.2710892   1.5773839  )
        32        O      tau(  32) = (   0.4432368   0.8811364   0.3085875  )
        33        O      tau(  33) = (   0.2146819   0.8811364   1.5873090  )
        34        O      tau(  34) = (  -0.1423236   0.4782556   1.5925436  )
        35        O      tau(  35) = (   0.8002423   0.4782556   0.3033529  )
[...]
     atom   10 type  7   force =     0.00026073    0.00341855   -0.01306145
     atom   11 type  7   force =    -0.00026073    0.00341855    0.01306145
     atom   12 type  7   force =    -0.00175789   -0.01165536    0.01016923
     atom   13 type  7   force =     0.00175789   -0.01165535   -0.01016928
     atom   14 type  1   force =    -0.00062765   -0.00166015   -0.00928782
     atom   15 type  1   force =     0.00062765   -0.00166015    0.00928782
     atom   16 type  6   force =    -0.00124711    0.00023840    0.00621478
     atom   17 type  6   force =     0.00124709    0.00023840   -0.00621477
     atom   18 type  6   force =    -0.00010144    0.00012518   -0.00694760
     atom   19 type  6   force =     0.00010144    0.00012518    0.00694760
     atom   20 type  6   force =     0.00015326   -0.00021103    0.00672276
     atom   21 type  6   force =    -0.00015326   -0.00021103   -0.00672276
     atom   22 type  6   force =    -0.00059739    0.00114922   -0.00263588
     atom   23 type  6   force =     0.00059739    0.00114922    0.00263588
     atom   24 type  6   force =     0.00473126   -0.00202810   -0.00561717
     atom   25 type  6   force =    -0.00473127   -0.00202809    0.00561714
     atom   26 type  6   force =    -0.00355522    0.00074984   -0.00719156
     atom   27 type  6   force =     0.00355522    0.00074985    0.00719154
     atom   28 type  6   force =    -0.00172723    0.00254354    0.00729285
     atom   29 type  6   force =     0.00172723    0.00254354   -0.00729285
     atom   30 type  6   force =     0.00103881   -0.00237612   -0.00745089
     atom   31 type  6   force =    -0.00103881   -0.00237612    0.00745089
     atom   32 type  6   force =    -0.00264272   -0.00343072   -0.00657869
     atom   33 type  6   force =     0.00264270   -0.00343072    0.00657870
     atom   34 type  6   force =     0.00099340    0.00425384    0.00660211
     atom   35 type  6   force =    -0.00099340    0.00425384   -0.00660211
     atom   36 type  6   force =     0.00000704    0.00054682    0.01130193
     atom   37 type  6   force =    -0.00000703    0.00054682   -0.01130193
     atom   38 type  6   force =     0.00127607   -0.00313982    0.01045351
     atom   39 type  6   force =    -0.00127606   -0.00313981   -0.01045349
     atom   40 type  3   force =     0.00000000    0.00000000    0.00000000
     atom   41 type  3   force =     0.00000000    0.00000000    0.00000000
     atom   42 type  3   force =     0.00000000    0.00000000    0.00000000
     atom   43 type  3   force =     0.00000000    0.00000000    0.00000000
     atom   44 type  2   force =    -0.00000000    0.00408913   -0.00000000
     The Hubbard contrib.    to forces
     atom    1 type  4   force =     0.00000000    0.00000000    0.00000000
     atom    2 type  4   force =     0.00000000    0.00000000    0.00000000
     atom    3 type  5   force =     0.00000000    0.00000000    0.00000000
     atom    4 type  5   force =     0.00000000    0.00000000    0.00000000
     atom    5 type  5   force =     0.00000000    0.00000000    0.00000000
     atom    6 type  5   force =     0.00000000    0.00000000    0.00000000
     atom    7 type  5   force =     0.00000000    0.00000000    0.00000000
     atom    8 type  7   force =     0.00000000    0.00000000    0.00000000
     atom    9 type  7   force =     0.00000000    0.00000000    0.00000000
     atom   10 type  7   force =     0.00000000    0.00000000    0.00000000
     atom   11 type  7   force =     0.00000000    0.00000000    0.00000000
     atom   12 type  7   force =     0.00000000    0.00000000    0.00000000
     atom   13 type  7   force =     0.00000000    0.00000000    0.00000000
     atom   14 type  1   force =     0.00000000    0.00000000    0.00000000
     atom   15 type  1   force =     0.00000000    0.00000000    0.00000000
     atom   16 type  6   force =     0.00000000    0.00000000    0.00000000
     atom   17 type  6   force =     0.00000000    0.00000000    0.00000000
     atom   18 type  6   force =     0.00000000    0.00000000    0.00000000
     atom   19 type  6   force =     0.00000000    0.00000000    0.00000000
     atom   20 type  6   force =     0.00000000    0.00000000    0.00000000
     atom   21 type  6   force =     0.00000000    0.00000000    0.00000000
     atom   22 type  6   force =     0.00000000    0.00000000    0.00000000
     atom   23 type  6   force =     0.00000000    0.00000000    0.00000000
     atom   24 type  6   force =     0.00000000    0.00000000    0.00000000
     atom   25 type  6   force =     0.00000000    0.00000000    0.00000000
     atom   26 type  6   force =     0.00000000    0.00000000    0.00000000
     atom   27 type  6   force =     0.00000000    0.00000000    0.00000000
     atom   28 type  6   force =     0.00000000    0.00000000    0.00000000
     atom   29 type  6   force =     0.00000000    0.00000000    0.00000000
     atom   30 type  6   force =     0.00000000    0.00000000    0.00000000
     atom   31 type  6   force =     0.00000000    0.00000000    0.00000000
     atom   32 type  6   force =     0.00000000    0.00000000    0.00000000
     atom   33 type  6   force =     0.00000000    0.00000000    0.00000000
     atom   34 type  6   force =     0.00000000    0.00000000    0.00000000
     atom   35 type  6   force =     0.00000000    0.00000000    0.00000000
     atom   36 type  6   force =     0.00000000    0.00000000    0.00000000
     atom   37 type  6   force =     0.00000000    0.00000000    0.00000000
     atom   38 type  6   force =     0.00000000    0.00000000    0.00000000
     atom   39 type  6   force =     0.00000000    0.00000000    0.00000000
     atom   40 type  3   force =     0.00000000    0.00000000    0.00000000
     atom   41 type  3   force =     0.00000000    0.00000000    0.00000000
     atom   42 type  3   force =     0.00000000    0.00000000    0.00000000
     atom   43 type  3   force =     0.00000000    0.00000000    0.00000000
     atom   44 type  2   force =     0.00000000    0.00000000    0.00000000
     The SCF correction term to forces
     atom    1 type  4   force =    -0.00000000   -0.00000346    0.00000000
     atom    2 type  4   force =     0.00000000    0.00000077    0.00000000
     atom    3 type  5   force =    -0.00000000    0.00007055   -0.00000000
     atom    4 type  5   force =     0.00000000   -0.00003825   -0.00000000
     atom    5 type  5   force =    -0.00000000   -0.00005535   -0.00000000
     atom    6 type  5   force =    -0.00000000   -0.00006639   -0.00000000
     atom    7 type  5   force =     0.00000000    0.00003761   -0.00000000
     atom    8 type  7   force =     0.00000218   -0.00000807   -0.00000465
     atom    9 type  7   force =    -0.00000218   -0.00000807    0.00000465
     atom   10 type  7   force =    -0.00000247    0.00001446    0.00001583
     atom   11 type  7   force =     0.00000247    0.00001446   -0.00001583
     atom   12 type  7   force =    -0.00000138    0.00000111   -0.00001805
     atom   13 type  7   force =     0.00000138    0.00000111    0.00001805
     atom   14 type  1   force =     0.00000091   -0.00000509    0.00000391
     atom   15 type  1   force =    -0.00000091   -0.00000509   -0.00000391
     atom   16 type  6   force =     0.00001138   -0.00002181    0.00001026
     atom   17 type  6   force =    -0.00001138   -0.00002181   -0.00001026
     atom   18 type  6   force =    -0.00000048    0.00003915    0.00001985
     atom   19 type  6   force =     0.00000048    0.00003915   -0.00001985
     atom   20 type  6   force =     0.00000812    0.00000376   -0.00001987
     atom   21 type  6   force =    -0.00000812    0.00000376    0.00001987
     atom   22 type  6   force =     0.00001532   -0.00002387   -0.00002384
     atom   23 type  6   force =    -0.00001532   -0.00002387    0.00002384
     atom   24 type  6   force =    -0.00000183   -0.00001722    0.00000225
     atom   25 type  6   force =     0.00000183   -0.00001722   -0.00000225
     atom   26 type  6   force =     0.00001442    0.00002013    0.00000481
     atom   27 type  6   force =    -0.00001442    0.00002013   -0.00000481
     atom   28 type  6   force =    -0.00000549    0.00002319    0.00002574
     atom   29 type  6   force =     0.00000549    0.00002319   -0.00002574
     atom   30 type  6   force =     0.00000428    0.00002555   -0.00000964
     atom   31 type  6   force =    -0.00000428    0.00002555    0.00000964
     atom   32 type  6   force =     0.00001035   -0.00001598   -0.00003303
     atom   33 type  6   force =    -0.00001035   -0.00001598    0.00003303
     atom   34 type  6   force =     0.00000597   -0.00002118    0.00000543
     atom   35 type  6   force =    -0.00000597   -0.00002118   -0.00000543
     atom   36 type  6   force =     0.00000121   -0.00002423   -0.00001709
     atom   37 type  6   force =    -0.00000121   -0.00002423    0.00001709
     atom   38 type  6   force =    -0.00001056    0.00002893   -0.00000733
     atom   39 type  6   force =     0.00001056    0.00002893    0.00000733
     atom   40 type  3   force =     0.00000005   -0.00000284   -0.00000551
     atom   41 type  3   force =    -0.00000005   -0.00000284    0.00000551
     atom   42 type  3   force =    -0.00000048    0.00000258   -0.00000181
     atom   43 type  3   force =     0.00000048    0.00000258    0.00000181
     atom   44 type  2   force =    -0.00000000   -0.00000021   -0.00000000

     DFT-D3 dispersion contribution to forces:
     atom    1 type  4   force =    -0.00000000    0.00058184    0.00000000
     atom    2 type  4   force =     0.00000000   -0.00049458    0.00000000
     atom    3 type  5   force =     0.00000000    0.00036717   -0.00000000
     atom    4 type  5   force =     0.00000000    0.00066647   -0.00000000
     atom    5 type  5   force =    -0.00000000   -0.00111309   -0.00000000
     atom    6 type  5   force =     0.00000000   -0.00050132    0.00000000
     atom    7 type  5   force =    -0.00000000    0.00108429    0.00000000
     atom    8 type  7   force =     0.00017239   -0.00007880   -0.00021096
     atom    9 type  7   force =    -0.00017239   -0.00007880    0.00021096
     atom   10 type  7   force =     0.00008540   -0.00002905    0.00035420
     atom   11 type  7   force =    -0.00008540   -0.00002905   -0.00035420
     atom   12 type  7   force =    -0.00003236    0.00016511   -0.00031145
     atom   13 type  7   force =     0.00003236    0.00016511    0.00031145
     atom   14 type  1   force =     0.00016899    0.00001229   -0.00115752
     atom   15 type  1   force =    -0.00016899    0.00001229    0.00115752
     atom   16 type  6   force =     0.00013895    0.00002241    0.00050501
     atom   17 type  6   force =    -0.00013895    0.00002241   -0.00050501
     atom   18 type  6   force =     0.00001108   -0.00002124   -0.00032686
     atom   19 type  6   force =    -0.00001108   -0.00002124    0.00032686
     atom   20 type  6   force =    -0.00001473   -0.00005446    0.00037838
     atom   21 type  6   force =     0.00001473   -0.00005446   -0.00037838
     atom   22 type  6   force =     0.00000882   -0.00007590    0.00006217
     atom   23 type  6   force =    -0.00000882   -0.00007590   -0.00006217
     atom   24 type  6   force =    -0.00022036    0.00106962    0.00011945
     atom   25 type  6   force =     0.00022036    0.00106962   -0.00011945
     atom   26 type  6   force =     0.00080067    0.00004821    0.00015845
     atom   27 type  6   force =    -0.00080067    0.00004821   -0.00015845
     atom   28 type  6   force =     0.00041738   -0.00061983   -0.00015604
     atom   29 type  6   force =    -0.00041738   -0.00061983    0.00015604
     atom   30 type  6   force =    -0.00029687    0.00045750    0.00019462
     atom   31 type  6   force =     0.00029687    0.00045750   -0.00019462
     atom   32 type  6   force =     0.00087077   -0.00041375    0.00036033
     atom   33 type  6   force =    -0.00087077   -0.00041375   -0.00036033
     atom   34 type  6   force =     0.00061242   -0.00046880   -0.00033204
     atom   35 type  6   force =    -0.00061242   -0.00046880    0.00033204
     atom   36 type  6   force =    -0.00003606   -0.00002700   -0.00052309
     atom   37 type  6   force =     0.00003606   -0.00002700    0.00052309
     atom   38 type  6   force =    -0.00004246    0.00014942   -0.00046688
     atom   39 type  6   force =     0.00004246    0.00014942    0.00046688
     atom   40 type  3   force =     0.00000289    0.00011299   -0.00030110
     atom   41 type  3   force =    -0.00000289    0.00011299    0.00030110
     atom   42 type  3   force =     0.00014393   -0.00050322   -0.00010943
     atom   43 type  3   force =    -0.00014393   -0.00050322    0.00010943
     atom   44 type  2   force =    -0.00000000   -0.00008178   -0.00000000

     Total force =     0.004114     Total SCF correction =     0.000200

     DFT-D3 dispersion Force =     0.004388
     Energy error            =      3.0E-05 Ry
     Gradient error          =      9.4E-04 Ry/Bohr

     bfgs converged in  15 scf cycles and  14 bfgs steps
     (criteria: energy <  1.0E-04 Ry, force <  1.0E-03 Ry/Bohr)

     End of BFGS Geometry Optimization

     Final energy             =   -2631.2461079230 Ry

     File ./temp/phl-fe1-fe6.bfgs deleted, as requested
Begin final coordinates

ATOMIC_POSITIONS (crystal)
K                0.0000000000        0.4954789771        0.0000000000
K                0.5000000000        0.0025164583        0.0000000000
Mg              -0.0000000000        0.0044252207        0.5000000000
Mg              -0.0000000000        0.3332686547        0.5000000000
Mg              -0.0000000000        0.6653499944        0.5000000000
Mg               0.5000000000        0.4950152948        0.5000000000
Mg               0.5000000000        0.8328205326        0.5000000000
Si               0.0795138646        0.1647367024        0.2207585047
Si               0.9204861214        0.1647367024        0.7792415253
Si               0.9353744564        0.8341529033        0.7718945371
Si               0.0646255436        0.8341529033        0.2281054629
Si               0.5631447189        0.6662650480        0.2259270003
Si               0.4368552811        0.6662650480        0.7740729847
Al               0.4169375100        0.3310275597        0.7772350582
Al               0.5830624900        0.3310275597        0.2227649418
O                0.1132950599        0.1639346456        0.3827198853
O                0.8867049101        0.1639346456        0.6172801437
O                0.8745413726        0.8332534223        0.6107775385
O                0.1254586274        0.8332534223        0.3892224615
O                0.6249154818        0.6683792085        0.3877552479
O                0.3750845182        0.6683792085        0.6122447521
O                0.3595664246        0.3370003678        0.6045636795
O                0.6404335754        0.3370003678        0.3954363205
O                0.3425014518        0.2014883223        0.1660932165
O                0.6574985482        0.2014883223        0.8339067535
O                0.9944210407        0.9965672035        0.1657236354
O                0.0055789593        0.9965672035        0.8342763496
O                0.6837593063        0.7750375801        0.8318114478
O                0.3162406937        0.7750375801        0.1681885522
O                0.8153014382        0.7312046846        0.1674344471
O                0.1846985618        0.7312046846        0.8325655529
O                0.4940834460        0.5077855742        0.1606183144
O                0.5059165240        0.5077855742        0.8393817006
O                0.1460746886        0.2766314363        0.8441161699
O                0.8539253264        0.2766314363        0.1558838301
O                0.1304699190        0.5043808774        0.3935815466
O                0.8695300960        0.5043808774        0.6064184534
O                0.6335740983        0.9945834464        0.3960372125
O                0.3664259017        0.9945834464        0.6039627575
H                0.0985660786        0.4955115740        0.2978418248
H                0.9014339514        0.4955115740        0.7021581752
H                0.5869329525        0.0172603921        0.3023371483
H                0.4130670475        0.0172603921        0.6976628517
Fe               0.5000000000        0.1727180230        0.5000000000
End final coordinates

     Writing all to output data dir ./temp/phl-fe1-fe6.save/ :
     XML data file, charge density, pseudopotentials, collected wavefunctions

     General routines

     Parallel routines

     PAW routines

   This run was terminated on:  23:13:58  14Jan2025

   JOB DONE.