     Program PWSCF v.7.3.1 starts on  4Mar2025 at  9: 8: 3

     Reading input from vc_relax.in

     Current dimensions of program PWSCF are:
     Max number of different atomic species (ntypx) = 10
     Max number of k-points (npk) =  40000
     Max angular momentum in pseudopotentials (lmaxx) =  4
     file Al.pbe-n-kjpaw_psl.1.0.0.UPF: wavefunction(s)  3S 3P renormalized
     file Ti.pbe-spn-kjpaw_psl.1.0.0.UPF: wavefunction(s)  3S 3P 3D renormalized
     file H.pbe-kjpaw_psl.1.0.0.UPF: wavefunction(s)  1S renormalized
     file K.pbe-spn-kjpaw_psl.1.0.0.UPF: wavefunction(s)  3S renormalized
     file Mg.pbe-spnl-kjpaw_psl.1.0.0.UPF: wavefunction(s)  2P renormalized
     file O.pbe-n-kjpaw_psl.1.0.0.UPF: wavefunction(s)  2S 2P renormalized
     file Si.pbe-n-kjpaw_psl.1.0.0.UPF: wavefunction(s)  3S 3P renormalized

     R & G space division:  proc/nbgrp/npool/nimage =       6
     Subspace diagonalization in iterative solution of the eigenvalue problem:
     one sub-group per band group will be used

     Using Slab Decomposition

     bravais-lattice index     =          -12
     lattice parameter (alat)  =      10.0136  a.u.
     unit-cell volume          =    3303.4414 (a.u.)^3
     number of atoms/cell      =           44
     number of atomic types    =            7
     number of electrons       =       258.00
     number of Kohn-Sham states=          155
     kinetic-energy cutoff     =      60.0000  Ry
     charge density cutoff     =     480.0000  Ry
     scf convergence threshold =      1.0E-06
     mixing beta               =       0.7000
     number of iterations used =            8  plain     mixing
     energy convergence thresh.=      1.0E-04
     force convergence thresh. =      1.0E-03
     press convergence thresh. =      5.0E-01
     Exchange-correlation= SLA  PW   PBX  PBC
                           (   1   4   3   4   0   0   0)
     nstep                     =           50

     celldm(1)=  10.013640  celldm(2)=   1.735306  celldm(3)=   1.926511
     celldm(4)=   0.000000  celldm(5)=  -0.177565  celldm(6)=   0.000000

     crystal axes: (cart. coord. in units of alat)
               a(1) = (   1.000000   0.000000   0.000000 )
               a(2) = (   0.000000   1.735306   0.000000 )
               a(3) = (  -0.342081   0.000000   1.895896 )

     reciprocal axes: (cart. coord. in units 2 pi/alat)
               b(1) = (  1.000000 -0.000000  0.180432 )
               b(2) = (  0.000000  0.576267 -0.000000 )
               b(3) = (  0.000000  0.000000  0.527455 )

     PseudoPot. # 1 for Al read from file:
     ./../../../pseudos/Al.pbe-n-kjpaw_psl.1.0.0.UPF
     MD5 check sum: 502b6b27b9c6270cab5dd1084b96fa6d
     Pseudo is Projector augmented-wave + core cor, Zval =  3.0
     Generated using &quot;atomic&quot; code by A. Dal Corso  v.6.3
     Shape of augmentation charge: PSQ
     Using radial grid of 1135 points,  6 beta functions with:
                l(1) =   0
                l(2) =   0
                l(3) =   1
                l(4) =   1
                l(5) =   2
                l(6) =   2
     Q(r) pseudized with 0 coefficients

     PseudoPot. # 2 for Ti read from file:
     ./../../../pseudos/Ti.pbe-spn-kjpaw_psl.1.0.0.UPF
     MD5 check sum: 01f69b0d8ba4438b2e03ac6ea4af1c0b
     Pseudo is Projector augmented-wave + core cor, Zval = 12.0
     Generated using &quot;atomic&quot; code by A. Dal Corso  v.6.2.2
     Shape of augmentation charge: PSQ
     Using radial grid of 1177 points,  6 beta functions with:
                l(1) =   0
                l(2) =   0
                l(3) =   1
                l(4) =   1
                l(5) =   2
                l(6) =   2
     Q(r) pseudized with 0 coefficients

     PseudoPot. # 3 for H  read from file:
     ./../../../pseudos/H.pbe-kjpaw_psl.1.0.0.UPF
     MD5 check sum: d81a744832360e4a8af0b0b5b123bc2a
     Pseudo is Projector augmented-wave, Zval =  1.0
     Generated using &quot;atomic&quot; code by A. Dal Corso  v.6.3MaX
     Shape of augmentation charge: PSQ
     Using radial grid of  929 points,  2 beta functions with:
                l(1) =   0
                l(2) =   0
     Q(r) pseudized with 0 coefficients

     PseudoPot. # 4 for K  read from file:
     ./../../../pseudos/K.pbe-spn-kjpaw_psl.1.0.0.UPF
     MD5 check sum: 34cc42130a09071ebe376fd42eb21491
     Pseudo is Projector augmented-wave + core cor, Zval =  9.0
     Generated using &quot;atomic&quot; code by A. Dal Corso  v.6.2.2
     Shape of augmentation charge: PSQ
     Using radial grid of 1165 points,  6 beta functions with:
                l(1) =   0
                l(2) =   0
                l(3) =   1
                l(4) =   1
                l(5) =   2
                l(6) =   2
     Q(r) pseudized with 0 coefficients

     PseudoPot. # 5 for Mg read from file:
     ./../../../pseudos/Mg.pbe-spnl-kjpaw_psl.1.0.0.UPF
     MD5 check sum: fda14e0d92a6a9a5ebed782e5a4b3067
     Pseudo is Projector augmented-wave + core cor, Zval = 10.0
     Generated using &quot;atomic&quot; code by A. Dal Corso  v.6.3
     Shape of augmentation charge: PSQ
     Using radial grid of 1129 points,  4 beta functions with:
                l(1) =   0
                l(2) =   0
                l(3) =   1
                l(4) =   1
     Q(r) pseudized with 0 coefficients

     PseudoPot. # 6 for O  read from file:
     ./../../../pseudos/O.pbe-n-kjpaw_psl.1.0.0.UPF
     MD5 check sum: e99d9cef9b487d1ca56f5b95ecd0fd7a
     Pseudo is Projector augmented-wave + core cor, Zval =  6.0
     Generated using &quot;atomic&quot; code by A. Dal Corso  v.6.3
     Shape of augmentation charge: PSQ
     Using radial grid of 1095 points,  4 beta functions with:
                l(1) =   0
                l(2) =   0
                l(3) =   1
                l(4) =   1
     Q(r) pseudized with 0 coefficients

     PseudoPot. # 7 for Si read from file:
     ./../../../pseudos/Si.pbe-n-kjpaw_psl.1.0.0.UPF
     MD5 check sum: c39c59da582df4a0d9f10159256ea34e
     Pseudo is Projector augmented-wave + core cor, Zval =  4.0
     Generated using &quot;atomic&quot; code by A. Dal Corso  v.6.3
     Shape of augmentation charge: PSQ
     Using radial grid of 1141 points,  6 beta functions with:
                l(1) =   0
                l(2) =   0
                l(3) =   1
                l(4) =   1
                l(5) =   2
                l(6) =   2
     Q(r) pseudized with 0 coefficients

     atomic species   valence    mass     pseudopotential
     Al                3.00    26.98154     Al( 1.00)
     Ti               12.00    47.86700     Ti( 1.00)
     H                 1.00     1.00794     H ( 1.00)
     K                 9.00    39.09830     K ( 1.00)
     Mg               10.00    24.30500     Mg( 1.00)
     O                 6.00    15.99940     O ( 1.00)
     Si                4.00    28.08550     Si( 1.00)

     Starting magnetic structure
     atomic species   magnetization
     Al              0.000
     Ti              0.300
     H               0.000
     K               0.000
     Mg              0.000
     O               0.000
     Si              0.000

      2 Sym. Ops. (no inversion) found

                                    s                        frac. trans.

      isym =  1     identity

 cryst.   s( 1) = (     1          0          0      )
                  (     0          1          0      )
                  (     0          0          1      )

 cart.    s( 1) = (  1.0000000  0.0000000 -0.0000000 )
                  (  0.0000000  1.0000000  0.0000000 )
                  (  0.0000000  0.0000000  1.0000000 )

      isym =  2     180 deg rotation - cart. axis [0,1,0]

[...]

     point group C_2  (2)
     there are  2 classes
     the character table:

       E     C2
A      1.00  1.00
B      1.00 -1.00

     the symmetry operations in each class and the name of the first element:

     E        1
          identity
     C2       2
          180 deg rotation - cart. axis [0,1,0]

   Cartesian axes

     site n.     atom                  positions (alat units)
         1        K      tau(   1) = (   0.0000000   0.8562206   0.0000000  )
         2        K      tau(   2) = (   0.5000000   0.0071494   0.0000000  )
         3        Mg     tau(   3) = (  -0.1710407   0.5813841   0.9479482  )
         4        Mg     tau(   4) = (  -0.1710407   1.1498222   0.9479482  )
         5        Mg     tau(   5) = (   0.3289593   0.8557333   0.9479482  )
         6        Mg     tau(   6) = (   0.3289593   1.4442876   0.9479482  )
         7        Mg     tau(   7) = (   0.3289593   0.3038208   0.9479482  )
         8        Si     tau(   8) = (   0.0091056   0.2889637   0.4172263  )
         9        Si     tau(   9) = (   0.6488131   0.2889637   1.4786702  )
        10        Si     tau(  10) = (   0.6688743   1.4461482   1.4659239  )
        11        Si     tau(  11) = (  -0.0109556   1.4461482   0.4299726  )
        12        Si     tau(  12) = (   0.4872869   1.1567181   0.4265946  )
        13        Si     tau(  13) = (   0.1706318   1.1567181   1.4693018  )
        14        Al     tau(  14) = (   0.1490760   0.5745942   1.4737544  )
        15        Al     tau(  15) = (   0.5088427   0.5745942   0.4221420  )
        16        O      tau(  16) = (   0.0007251   0.2966679   0.7254026  )
        17        O      tau(  17) = (   0.6571935   0.2966679   1.1704939  )
        18        O      tau(  18) = (   0.6607964   1.4335504   1.1605483  )
        19        O      tau(  19) = (  -0.0028777   1.4335504   0.7353481  )
        20        O      tau(  20) = (   0.4934424   1.1614964   0.7337143  )
        21        O      tau(  21) = (   0.1644763   1.1614964   1.1621822  )
        22        O      tau(  22) = (   0.1538082   0.5783883   1.1468942  )
        23        O      tau(  23) = (   0.5041105   0.5783883   0.7490022  )
        24        O      tau(  24) = (   0.2878514   0.3528805   0.3069153  )
        25        O      tau(  25) = (   0.3700673   0.3528805   1.5889810  )
        26        O      tau(  26) = (   0.9400207   1.7309002   0.3195008  )
        27        O      tau(  27) = (  -0.2821020   1.7309002   1.5763955  )
        28        O      tau(  28) = (   0.3972165   1.3452047   1.5811073  )
        29        O      tau(  29) = (   0.2607022   1.3452047   0.3147892  )
        30        O      tau(  30) = (   0.7586125   1.2707715   0.3145384  )
        31        O      tau(  31) = (  -0.1006938   1.2707715   1.5813581  )
        32        O      tau(  32) = (   0.4407526   0.8812407   0.3047100  )
        33        O      tau(  33) = (   0.2171660   0.8812407   1.5911864  )
        34        O      tau(  34) = (  -0.1447524   0.4802295   1.5996611  )
        35        O      tau(  35) = (   0.8026711   0.4802295   0.2962353  )
        36        O      tau(  36) = (  -0.0029216   0.8739744   0.7469131  )
        37        O      tau(  37) = (   0.6608404   0.8739744   1.1489833  )
        38        O      tau(  38) = (   0.4880389   1.7349890   0.7478557  )
        39        O      tau(  39) = (   0.1698798   1.7349890   1.1480407  )
        40        H      tau(  40) = (  -0.0024162   0.8589926   0.5653354  )
[...]
     atom    1 type  4   force =    -0.00000000   -0.00147352    0.00000000
     atom    2 type  4   force =    -0.00000000    0.00160857   -0.00000000
     atom    3 type  5   force =    -0.00000000    0.00034450    0.00000000
     atom    4 type  5   force =     0.00000000   -0.00046536   -0.00000000
     atom    5 type  5   force =    -0.00000000   -0.00082778   -0.00000000
     atom    6 type  5   force =    -0.00000000    0.00010404    0.00000000
     atom    7 type  5   force =     0.00000000    0.00060325   -0.00000000
     atom    8 type  7   force =     0.00251987    0.01186756    0.00497851
     atom    9 type  7   force =    -0.00251995    0.01186757   -0.00497838
     atom   10 type  7   force =    -0.00020722    0.00209871   -0.01283409
     atom   11 type  7   force =     0.00020719    0.00209871    0.01283418
     atom   12 type  7   force =    -0.00133474   -0.01225847    0.01045204
     atom   13 type  7   force =     0.00133477   -0.01225847   -0.01045204
     atom   14 type  1   force =    -0.00031930   -0.00219710   -0.00969819
     atom   15 type  1   force =     0.00031927   -0.00219710    0.00969819
     atom   16 type  6   force =     0.00021634    0.00126401    0.00604537
     atom   17 type  6   force =    -0.00021635    0.00126401   -0.00604537
     atom   18 type  6   force =    -0.00052811   -0.00107850   -0.00652606
     atom   19 type  6   force =     0.00052812   -0.00107850    0.00652606
     atom   20 type  6   force =     0.00006555   -0.00030670    0.00677780
     atom   21 type  6   force =    -0.00006554   -0.00030670   -0.00677780
     atom   22 type  6   force =     0.00005454    0.00012078   -0.00313913
     atom   23 type  6   force =    -0.00005455    0.00012077    0.00313912
     atom   24 type  6   force =     0.00453864   -0.00145512   -0.00595369
     atom   25 type  6   force =    -0.00453864   -0.00145511    0.00595366
     atom   26 type  6   force =    -0.00297436    0.00076723   -0.00689467
     atom   27 type  6   force =     0.00297438    0.00076723    0.00689462
     atom   28 type  6   force =    -0.00146933    0.00192039    0.00742462
     atom   29 type  6   force =     0.00146933    0.00192038   -0.00742459
     atom   30 type  6   force =     0.00053454   -0.00168018   -0.00747558
     atom   31 type  6   force =    -0.00053454   -0.00168018    0.00747561
     atom   32 type  6   force =    -0.00207333   -0.00352285   -0.00645232
     atom   33 type  6   force =     0.00207330   -0.00352285    0.00645231
     atom   34 type  6   force =     0.00139444    0.00383161    0.00650374
     atom   35 type  6   force =    -0.00139444    0.00383161   -0.00650371
     atom   36 type  6   force =    -0.00003004    0.00049596    0.01120982
     atom   37 type  6   force =     0.00003006    0.00049596   -0.01120982
     atom   38 type  6   force =    -0.00088214   -0.00083980    0.01097950
     atom   39 type  6   force =     0.00088216   -0.00083980   -0.01097950
     atom   40 type  3   force =     0.00000000    0.00000000    0.00000000
     atom   41 type  3   force =     0.00000000    0.00000000    0.00000000
     atom   42 type  3   force =     0.00000000    0.00000000    0.00000000
     atom   43 type  3   force =     0.00000000    0.00000000    0.00000000
     atom   44 type  2   force =    -0.00000000   -0.00150208   -0.00000000
     The Hubbard contrib.    to forces
     atom    1 type  4   force =     0.00000000    0.00000000    0.00000000
     atom    2 type  4   force =     0.00000000    0.00000000    0.00000000
     atom    3 type  5   force =     0.00000000    0.00000000    0.00000000
     atom    4 type  5   force =     0.00000000    0.00000000    0.00000000
     atom    5 type  5   force =     0.00000000    0.00000000    0.00000000
     atom    6 type  5   force =     0.00000000    0.00000000    0.00000000
     atom    7 type  5   force =     0.00000000    0.00000000    0.00000000
     atom    8 type  7   force =     0.00000000    0.00000000    0.00000000
     atom    9 type  7   force =     0.00000000    0.00000000    0.00000000
     atom   10 type  7   force =     0.00000000    0.00000000    0.00000000
     atom   11 type  7   force =     0.00000000    0.00000000    0.00000000
     atom   12 type  7   force =     0.00000000    0.00000000    0.00000000
     atom   13 type  7   force =     0.00000000    0.00000000    0.00000000
     atom   14 type  1   force =     0.00000000    0.00000000    0.00000000
     atom   15 type  1   force =     0.00000000    0.00000000    0.00000000
     atom   16 type  6   force =     0.00000000    0.00000000    0.00000000
     atom   17 type  6   force =     0.00000000    0.00000000    0.00000000
     atom   18 type  6   force =     0.00000000    0.00000000    0.00000000
     atom   19 type  6   force =     0.00000000    0.00000000    0.00000000
     atom   20 type  6   force =     0.00000000    0.00000000    0.00000000
     atom   21 type  6   force =     0.00000000    0.00000000    0.00000000
     atom   22 type  6   force =     0.00000000    0.00000000    0.00000000
     atom   23 type  6   force =     0.00000000    0.00000000    0.00000000
     atom   24 type  6   force =     0.00000000    0.00000000    0.00000000
     atom   25 type  6   force =     0.00000000    0.00000000    0.00000000
     atom   26 type  6   force =     0.00000000    0.00000000    0.00000000
     atom   27 type  6   force =     0.00000000    0.00000000    0.00000000
     atom   28 type  6   force =     0.00000000    0.00000000    0.00000000
     atom   29 type  6   force =     0.00000000    0.00000000    0.00000000
     atom   30 type  6   force =     0.00000000    0.00000000    0.00000000
     atom   31 type  6   force =     0.00000000    0.00000000    0.00000000
     atom   32 type  6   force =     0.00000000    0.00000000    0.00000000
     atom   33 type  6   force =     0.00000000    0.00000000    0.00000000
     atom   34 type  6   force =     0.00000000    0.00000000    0.00000000
     atom   35 type  6   force =     0.00000000    0.00000000    0.00000000
     atom   36 type  6   force =     0.00000000    0.00000000    0.00000000
     atom   37 type  6   force =     0.00000000    0.00000000    0.00000000
     atom   38 type  6   force =     0.00000000    0.00000000    0.00000000
     atom   39 type  6   force =     0.00000000    0.00000000    0.00000000
     atom   40 type  3   force =     0.00000000    0.00000000    0.00000000
     atom   41 type  3   force =     0.00000000    0.00000000    0.00000000
     atom   42 type  3   force =     0.00000000    0.00000000    0.00000000
     atom   43 type  3   force =     0.00000000    0.00000000    0.00000000
     atom   44 type  2   force =     0.00000000    0.00000000    0.00000000
     The SCF correction term to forces
     atom    1 type  4   force =     0.00000000    0.00002029   -0.00000000
     atom    2 type  4   force =    -0.00000000   -0.00001251   -0.00000000
     atom    3 type  5   force =     0.00000000    0.00006675    0.00000000
     atom    4 type  5   force =    -0.00000000   -0.00005188   -0.00000000
     atom    5 type  5   force =    -0.00000000    0.00015726   -0.00000000
     atom    6 type  5   force =     0.00000000   -0.00011187   -0.00000000
     atom    7 type  5   force =    -0.00000000   -0.00003726    0.00000000
     atom    8 type  7   force =    -0.00001566    0.00000183   -0.00004952
     atom    9 type  7   force =     0.00001566    0.00000183    0.00004952
     atom   10 type  7   force =     0.00001299   -0.00002974    0.00007207
     atom   11 type  7   force =    -0.00001299   -0.00002974   -0.00007207
     atom   12 type  7   force =     0.00000989   -0.00000517   -0.00003753
     atom   13 type  7   force =    -0.00000989   -0.00000517    0.00003753
     atom   14 type  1   force =    -0.00000544    0.00002202    0.00006466
     atom   15 type  1   force =     0.00000544    0.00002202   -0.00006466
     atom   16 type  6   force =    -0.00005407    0.00001283    0.00008746
     atom   17 type  6   force =     0.00005407    0.00001283   -0.00008746
     atom   18 type  6   force =     0.00003709   -0.00004136   -0.00012881
     atom   19 type  6   force =    -0.00003709   -0.00004136    0.00012881
     atom   20 type  6   force =     0.00000254   -0.00007454    0.00010002
     atom   21 type  6   force =    -0.00000254   -0.00007454   -0.00010002
     atom   22 type  6   force =    -0.00002023    0.00008461    0.00007910
     atom   23 type  6   force =     0.00002023    0.00008461   -0.00007910
     atom   24 type  6   force =     0.00009054    0.00006882   -0.00014334
     atom   25 type  6   force =    -0.00009054    0.00006882    0.00014334
     atom   26 type  6   force =    -0.00005706   -0.00002057   -0.00019087
     atom   27 type  6   force =     0.00005706   -0.00002057    0.00019087
     atom   28 type  6   force =    -0.00001813   -0.00004810    0.00019545
     atom   29 type  6   force =     0.00001813   -0.00004810   -0.00019545
     atom   30 type  6   force =     0.00000240   -0.00007830   -0.00019057
     atom   31 type  6   force =    -0.00000240   -0.00007830    0.00019057
     atom   32 type  6   force =    -0.00000751   -0.00005170   -0.00009717
     atom   33 type  6   force =     0.00000751   -0.00005170    0.00009717
     atom   34 type  6   force =     0.00006496    0.00011337    0.00012770
     atom   35 type  6   force =    -0.00006496    0.00011337   -0.00012770
     atom   36 type  6   force =     0.00000392    0.00003398    0.00001310
     atom   37 type  6   force =    -0.00000392    0.00003398   -0.00001310
     atom   38 type  6   force =     0.00007145   -0.00002470    0.00001266
     atom   39 type  6   force =    -0.00007145   -0.00002470   -0.00001266
     atom   40 type  3   force =    -0.00000082    0.00000569    0.00002807
     atom   41 type  3   force =     0.00000082    0.00000569   -0.00002807
     atom   42 type  3   force =     0.00000675   -0.00000379    0.00000860
     atom   43 type  3   force =    -0.00000675   -0.00000379   -0.00000860
     atom   44 type  2   force =    -0.00000000   -0.00002640   -0.00000000

     DFT-D3 dispersion contribution to forces:
     atom    1 type  4   force =    -0.00000000    0.00127734   -0.00000000
     atom    2 type  4   force =     0.00000000   -0.00118206    0.00000000
     atom    3 type  5   force =     0.00000000    0.00080386    0.00000000
     atom    4 type  5   force =     0.00000000   -0.00121490   -0.00000000
     atom    5 type  5   force =     0.00000000   -0.00062912    0.00000000
     atom    6 type  5   force =     0.00000000    0.00100246   -0.00000000
     atom    7 type  5   force =     0.00000000   -0.00008999   -0.00000000
     atom    8 type  7   force =    -0.00003374   -0.00014384   -0.00009067
     atom    9 type  7   force =     0.00003374   -0.00014384    0.00009067
     atom   10 type  7   force =     0.00012698    0.00017367   -0.00002876
     atom   11 type  7   force =    -0.00012698    0.00017367    0.00002876
     atom   12 type  7   force =     0.00000178    0.00017474   -0.00009477
     atom   13 type  7   force =    -0.00000178    0.00017474    0.00009477
     atom   14 type  1   force =     0.00001941    0.00008305   -0.00099972
     atom   15 type  1   force =    -0.00001940    0.00008305    0.00099972
     atom   16 type  6   force =    -0.00000656   -0.00002903    0.00049258
     atom   17 type  6   force =     0.00000656   -0.00002903   -0.00049258
     atom   18 type  6   force =     0.00001546    0.00005978   -0.00047834
     atom   19 type  6   force =    -0.00001546    0.00005978    0.00047834
     atom   20 type  6   force =    -0.00006719   -0.00010321    0.00041492
     atom   21 type  6   force =     0.00006719   -0.00010321   -0.00041492
     atom   22 type  6   force =     0.00005239    0.00005025    0.00010170
     atom   23 type  6   force =    -0.00005239    0.00005025   -0.00010170
     atom   24 type  6   force =    -0.00017887    0.00099456    0.00036650
     atom   25 type  6   force =     0.00017887    0.00099457   -0.00036650
     atom   26 type  6   force =     0.00086382    0.00007102    0.00004953
     atom   27 type  6   force =    -0.00086382    0.00007102   -0.00004953
     atom   28 type  6   force =     0.00028980   -0.00045359    0.00008294
     atom   29 type  6   force =    -0.00028979   -0.00045359   -0.00008294
     atom   30 type  6   force =    -0.00013733    0.00022338   -0.00013556
     atom   31 type  6   force =     0.00013733    0.00022338    0.00013556
     atom   32 type  6   force =     0.00092891   -0.00043945    0.00042700
     atom   33 type  6   force =    -0.00092890   -0.00043945   -0.00042700
     atom   34 type  6   force =     0.00065267   -0.00050017   -0.00053160
     atom   35 type  6   force =    -0.00065267   -0.00050017    0.00053160
     atom   36 type  6   force =    -0.00001447   -0.00003002   -0.00049287
     atom   37 type  6   force =     0.00001447   -0.00003002    0.00049287
     atom   38 type  6   force =     0.00022326    0.00003171   -0.00046705
     atom   39 type  6   force =    -0.00022326    0.00003171    0.00046705
     atom   40 type  3   force =     0.00001226    0.00007371   -0.00030033
     atom   41 type  3   force =    -0.00001226    0.00007371    0.00030033
     atom   42 type  3   force =    -0.00003418   -0.00028614   -0.00031022
     atom   43 type  3   force =     0.00003418   -0.00028614    0.00031022
     atom   44 type  2   force =     0.00000000    0.00013155   -0.00000000

     Total force =     0.003447     Total SCF correction =     0.000786

     DFT-D3 dispersion Force =     0.004554
     SCF correction compared to forces is large: reduce conv_thr to get better values

     Computing stress (Cartesian axis) and pressure

          total   stress  (Ry/bohr**3)                   (kbar)     P=       -1.15
  -0.00000614   0.00000000   0.00000099           -0.90        0.00        0.15
   0.00000000  -0.00000766   0.00000000            0.00       -1.13        0.00
   0.00000099   0.00000000  -0.00000970            0.15        0.00       -1.43

     kinetic stress (kbar)  18922.16      0.00    -35.84
                                0.00  18908.85      0.00
                              -35.84      0.00  18659.23

     local   stress (kbar) -36426.15      0.00    -31.79
                                0.00 -35970.53     -0.00
                              -31.79     -0.00  15583.02

     nonloc. stress (kbar)   4342.85      0.00      5.72
                                0.00   4347.01      0.00
                                5.72      0.00   4321.78

     hartree stress (kbar)  20031.67     -0.00     15.53
                               -0.00  19851.08     -0.00
                               15.53     -0.00  -5322.57

     exc-cor stress (kbar)  -2532.80      0.00     -0.09
                                0.00  -2533.41      0.00
                               -0.09      0.00  -2529.84

     corecor stress (kbar)  -1956.75     -0.00      0.64
                               -0.00  -1956.65     -0.00
                                0.64     -0.00  -1958.40

     ewald   stress (kbar)  -2366.92     -0.00     45.82
                               -0.00  -2632.29      0.00
                               45.82      0.00 -28743.39

     hubbard stress (kbar)      0.00      0.00      0.00
                                0.00      0.00      0.00
                                0.00      0.00      0.00

     DFT-D   stress (kbar)    -14.97     -0.00      0.15
                               -0.00    -15.19      0.00
                                0.15      0.00    -11.27

     XDM     stress (kbar)      0.00      0.00      0.00
                                0.00      0.00      0.00
                                0.00      0.00      0.00

     dft-nl  stress (kbar)      0.00      0.00      0.00
                                0.00      0.00      0.00
                                0.00      0.00      0.00

     TS-vdW  stress (kbar)      0.00      0.00      0.00
                                0.00      0.00      0.00
                                0.00      0.00      0.00

     MDB     stress (kbar)      0.00      0.00      0.00
                                0.00      0.00      0.00
                                0.00      0.00      0.00

     3D-RISM stress (kbar)      0.00      0.00      0.00
                                0.00      0.00      0.00
                                0.00      0.00      0.00

     Writing all to output data dir ./temp/phl-ti1-ti1.save/ :
     XML data file, charge density, pseudopotentials, collected wavefunctions

     General routines

     Parallel routines

     PAW routines

   This run was terminated on:  23:16:47   4Mar2025

   JOB DONE.