     Program PWSCF v.7.3.1 starts on  9Jan2025 at 11: 7:54

     Reading input from vc_relax.in

     Current dimensions of program PWSCF are:
     Max number of different atomic species (ntypx) = 10
     Max number of k-points (npk) =  40000
     Max angular momentum in pseudopotentials (lmaxx) =  4
     file Al.pbe-n-kjpaw_psl.1.0.0.UPF: wavefunction(s)  3S 3P renormalized
     file Fe.pbe-spn-kjpaw_psl.1.0.0.UPF: wavefunction(s)  3P 3D renormalized
     file Fe.pbe-spn-kjpaw_psl.1.0.0.UPF: wavefunction(s)  3P 3D renormalized
     file H.pbe-kjpaw_psl.1.0.0.UPF: wavefunction(s)  1S renormalized
     file K.pbe-spn-kjpaw_psl.1.0.0.UPF: wavefunction(s)  3S renormalized
     file Mg.pbe-spnl-kjpaw_psl.1.0.0.UPF: wavefunction(s)  2P renormalized
     file O.pbe-n-kjpaw_psl.1.0.0.UPF: wavefunction(s)  2S 2P renormalized
     file Si.pbe-n-kjpaw_psl.1.0.0.UPF: wavefunction(s)  3S 3P renormalized

     R & G space division:  proc/nbgrp/npool/nimage =       6
     Subspace diagonalization in iterative solution of the eigenvalue problem:
     one sub-group per band group will be used

     Using Slab Decomposition

     bravais-lattice index     =          -12
     lattice parameter (alat)  =      20.1681  a.u.
     unit-cell volume          =    6846.2028 (a.u.)^3
     number of atoms/cell      =           88
     number of atomic types    =            8
     number of electrons       =       524.00
     number of Kohn-Sham states=          314
     kinetic-energy cutoff     =      60.0000  Ry
     charge density cutoff     =     480.0000  Ry
     scf convergence threshold =      1.0E-06
     mixing beta               =       0.7000
     number of iterations used =            8  plain     mixing
     energy convergence thresh.=      1.0E-04
     force convergence thresh. =      1.0E-03
     press convergence thresh. =      5.0E-01
     Exchange-correlation= SLA  PW   PBX  PBC
                           (   1   4   3   4   0   0   0)
     nstep                     =           50

     celldm(1)=  20.168128  celldm(2)=   0.869309  celldm(3)=   0.974943
     celldm(4)=   0.000000  celldm(5)=  -0.174314  celldm(6)=   0.000000

     crystal axes: (cart. coord. in units of alat)
               a(1) = (   1.000000   0.000000   0.000000 )
               a(2) = (   0.000000   0.869309   0.000000 )
               a(3) = (  -0.169946   0.000000   0.960017 )

     reciprocal axes: (cart. coord. in units 2 pi/alat)
               b(1) = (  1.000000 -0.000000  0.177024 )
               b(2) = (  0.000000  1.150339 -0.000000 )
               b(3) = (  0.000000  0.000000  1.041649 )

     PseudoPot. # 1 for Al read from file:
     ./../../../pseudos/Al.pbe-n-kjpaw_psl.1.0.0.UPF
     MD5 check sum: 502b6b27b9c6270cab5dd1084b96fa6d
     Pseudo is Projector augmented-wave + core cor, Zval =  3.0
     Generated using &quot;atomic&quot; code by A. Dal Corso  v.6.3
     Shape of augmentation charge: PSQ
     Using radial grid of 1135 points,  6 beta functions with:
                l(1) =   0
                l(2) =   0
                l(3) =   1
                l(4) =   1
                l(5) =   2
                l(6) =   2
     Q(r) pseudized with 0 coefficients

     PseudoPot. # 2 for Fe read from file:
     ./../../../pseudos/Fe.pbe-spn-kjpaw_psl.1.0.0.UPF
     MD5 check sum: fc81f059e5c5069939230b1155715ae8
     Pseudo is Projector augmented-wave + core cor, Zval = 16.0
     Generated using &quot;atomic&quot; code by A. Dal Corso  v.6.3
     Shape of augmentation charge: PSQ
     Using radial grid of 1191 points,  6 beta functions with:
                l(1) =   0
                l(2) =   0
                l(3) =   1
                l(4) =   1
                l(5) =   2
                l(6) =   2
     Q(r) pseudized with 0 coefficients

[...]

     PseudoPot. # 4 for H  read from file:
     ./../../../pseudos/H.pbe-kjpaw_psl.1.0.0.UPF
     MD5 check sum: d81a744832360e4a8af0b0b5b123bc2a
     Pseudo is Projector augmented-wave, Zval =  1.0
     Generated using &quot;atomic&quot; code by A. Dal Corso  v.6.3MaX
     Shape of augmentation charge: PSQ
     Using radial grid of  929 points,  2 beta functions with:
                l(1) =   0
                l(2) =   0
     Q(r) pseudized with 0 coefficients

     PseudoPot. # 5 for K  read from file:
     ./../../../pseudos/K.pbe-spn-kjpaw_psl.1.0.0.UPF
     MD5 check sum: 34cc42130a09071ebe376fd42eb21491
     Pseudo is Projector augmented-wave + core cor, Zval =  9.0
     Generated using &quot;atomic&quot; code by A. Dal Corso  v.6.2.2
     Shape of augmentation charge: PSQ
     Using radial grid of 1165 points,  6 beta functions with:
                l(1) =   0
                l(2) =   0
                l(3) =   1
                l(4) =   1
                l(5) =   2
                l(6) =   2
     Q(r) pseudized with 0 coefficients

     PseudoPot. # 6 for Mg read from file:
     ./../../../pseudos/Mg.pbe-spnl-kjpaw_psl.1.0.0.UPF
     MD5 check sum: fda14e0d92a6a9a5ebed782e5a4b3067
     Pseudo is Projector augmented-wave + core cor, Zval = 10.0
     Generated using &quot;atomic&quot; code by A. Dal Corso  v.6.3
     Shape of augmentation charge: PSQ
     Using radial grid of 1129 points,  4 beta functions with:
                l(1) =   0
                l(2) =   0
                l(3) =   1
                l(4) =   1
     Q(r) pseudized with 0 coefficients

     PseudoPot. # 7 for O  read from file:
     ./../../../pseudos/O.pbe-n-kjpaw_psl.1.0.0.UPF
     MD5 check sum: e99d9cef9b487d1ca56f5b95ecd0fd7a
     Pseudo is Projector augmented-wave + core cor, Zval =  6.0
     Generated using &quot;atomic&quot; code by A. Dal Corso  v.6.3
     Shape of augmentation charge: PSQ
     Using radial grid of 1095 points,  4 beta functions with:
                l(1) =   0
                l(2) =   0
                l(3) =   1
                l(4) =   1
     Q(r) pseudized with 0 coefficients

     PseudoPot. # 8 for Si read from file:
     ./../../../pseudos/Si.pbe-n-kjpaw_psl.1.0.0.UPF
     MD5 check sum: c39c59da582df4a0d9f10159256ea34e
     Pseudo is Projector augmented-wave + core cor, Zval =  4.0
     Generated using &quot;atomic&quot; code by A. Dal Corso  v.6.3
     Shape of augmentation charge: PSQ
     Using radial grid of 1141 points,  6 beta functions with:
                l(1) =   0
                l(2) =   0
                l(3) =   1
                l(4) =   1
                l(5) =   2
                l(6) =   2
     Q(r) pseudized with 0 coefficients

     atomic species   valence    mass     pseudopotential
     Al                3.00    26.98154     Al( 1.00)
     Fe1              16.00    55.84500     Fe( 1.00)
     Fe2              16.00    55.84500     Fe( 1.00)
     H                 1.00     1.00794     H ( 1.00)
     K                 9.00    39.09830     K ( 1.00)
     Mg               10.00    24.30500     Mg( 1.00)
     O                 6.00    15.99940     O ( 1.00)
     Si                4.00    28.08550     Si( 1.00)

     Starting magnetic structure
     atomic species   magnetization
     Al              0.000
     Fe1             0.300
     Fe2            -0.300
     H               0.000
     K               0.000
     Mg              0.000
     O               0.000
     Si              0.000

      2 Sym. Ops. (no inversion) found ( 1 have fractional translation)

                                    s                        frac. trans.

      isym =  1     identity

 cryst.   s( 1) = (     1          0          0      )
                  (     0          1          0      )
                  (     0          0          1      )

 cart.    s( 1) = (  1.0000000  0.0000000  0.0000000 )
                  (  0.0000000  1.0000000  0.0000000 )
                  (  0.0000000  0.0000000  1.0000000 )

      isym =  2     180 deg rotation - cart. axis [0,1,0]

 cryst.   s( 2) = (    -1          0          0      )    f =(  0.5000000 )
                  (     0          1          0      )       (  0.0000000 )
                  (     0          0         -1      )       (  0.0000000 )

 cart.    s( 2) = ( -1.0000000  0.0000000  0.0000000 )    f =(  0.5000000 )
                  (  0.0000000  1.0000000  0.0000000 )       (  0.0000000 )
                  (  0.0000000  0.0000000 -1.0000000 )       (  0.0000000 )

     point group C_2  (2)
     there are  2 classes
     the character table:

       E     C2
A      1.00  1.00
B      1.00 -1.00

     the symmetry operations in each class and the name of the first element:

     E        1
          identity
     C2       2
          180 deg rotation - cart. axis [0,1,0]

   Cartesian axes

     site n.     atom                  positions (alat units)
         1        K      tau(   1) = (   0.0000000   0.4248539   0.0000000  )
         2        K      tau(   2) = (   0.5000000   0.4248539   0.0000000  )
         3        K      tau(   3) = (   0.2500000   0.0080773   0.0000000  )
         4        K      tau(   4) = (   0.7500000   0.0080773   0.0000000  )
         5        Mg     tau(   5) = (  -0.0849732   0.0034756   0.4800083  )
         6        Mg     tau(   6) = (   0.4150268   0.0034756   0.4800083  )
         7        Mg     tau(   7) = (  -0.0849732   0.2888718   0.4800083  )
         8        Mg     tau(   8) = (   0.4150268   0.2888718   0.4800083  )
         9        Mg     tau(   9) = (  -0.0849732   0.5788665   0.4800083  )
        10        Mg     tau(  10) = (   0.4150268   0.5788665   0.4800083  )
        11        Mg     tau(  11) = (   0.1650268   0.7258935   0.4800083  )
        12        Mg     tau(  12) = (   0.6650268   0.7258935   0.4800083  )
        13        Mg     tau(  13) = (   0.1650268   0.1472844   0.4800083  )
        14        Mg     tau(  14) = (   0.6650268   0.1472844   0.4800083  )
        15        Fe1    tau(  15) = (   0.1650268   0.4268724   0.4800083  )
        16        Fe2    tau(  16) = (   0.6650268   0.4268724   0.4800083  )
        17        Si     tau(  17) = (   0.0038011   0.1431967   0.2172113  )
        18        Si     tau(  18) = (   0.5038011   0.1431967   0.2172113  )
        19        Si     tau(  19) = (   0.3262526   0.1431967   0.7428053  )
        20        Si     tau(  20) = (   0.8262526   0.1431967   0.7428053  )
        21        Si     tau(  21) = (   0.3361473   0.7252565   0.7368591  )
        22        Si     tau(  22) = (   0.8361473   0.7252565   0.7368591  )
        23        Si     tau(  23) = (  -0.0060936   0.7252565   0.2231575  )
        24        Si     tau(  24) = (   0.4939064   0.7252565   0.2231575  )
        25        Si     tau(  25) = (   0.2439631   0.5804373   0.2216193  )
        26        Si     tau(  26) = (   0.7439631   0.5804373   0.2216193  )
        27        Si     tau(  27) = (   0.0860906   0.5804373   0.7383973  )
        28        Si     tau(  28) = (   0.5860906   0.5804373   0.7383973  )
        29        Al     tau(  29) = (   0.0756802   0.2880376   0.7406365  )
        30        Al     tau(  30) = (   0.5756802   0.2880376   0.7406365  )
        31        Al     tau(  31) = (   0.2543735   0.2880376   0.2193801  )
        32        Al     tau(  32) = (   0.7543734   0.2880376   0.2193801  )
[...]
     atom   50 type  7   force =     0.00000000    0.00000000    0.00000000
     atom   51 type  7   force =     0.00000000    0.00000000    0.00000000
     atom   52 type  7   force =     0.00000000    0.00000000    0.00000000
     atom   53 type  7   force =     0.00000000    0.00000000    0.00000000
     atom   54 type  7   force =     0.00000000    0.00000000    0.00000000
     atom   55 type  7   force =     0.00000000    0.00000000    0.00000000
     atom   56 type  7   force =     0.00000000    0.00000000    0.00000000
     atom   57 type  7   force =     0.00000000    0.00000000    0.00000000
     atom   58 type  7   force =     0.00000000    0.00000000    0.00000000
     atom   59 type  7   force =     0.00000000    0.00000000    0.00000000
     atom   60 type  7   force =     0.00000000    0.00000000    0.00000000
[...]
     atom   74 type  7   force =     0.00000000    0.00000000    0.00000000
     atom   75 type  7   force =     0.00000000    0.00000000    0.00000000
     atom   76 type  7   force =     0.00000000    0.00000000    0.00000000
     atom   77 type  7   force =     0.00000000    0.00000000    0.00000000
     atom   78 type  7   force =     0.00000000    0.00000000    0.00000000
     atom   79 type  7   force =     0.00000000    0.00000000    0.00000000
     atom   80 type  7   force =     0.00000000    0.00000000    0.00000000
     atom   81 type  4   force =     0.00000000    0.00000000    0.00000000
     atom   82 type  4   force =     0.00000000    0.00000000    0.00000000
     atom   83 type  4   force =     0.00000000    0.00000000    0.00000000
     atom   84 type  4   force =     0.00000000    0.00000000    0.00000000
     atom   85 type  4   force =     0.00000000    0.00000000    0.00000000
     atom   86 type  4   force =     0.00000000    0.00000000    0.00000000
     atom   87 type  4   force =     0.00000000    0.00000000    0.00000000
     atom   88 type  4   force =     0.00000000    0.00000000    0.00000000
     The SCF correction term to forces
     atom    1 type  5   force =    -0.00000506   -0.00000273   -0.00000976
     atom    2 type  5   force =     0.00000506   -0.00000273    0.00000976
     atom    3 type  5   force =    -0.00000000   -0.00000459    0.00000000
     atom    4 type  5   force =     0.00000000    0.00001851   -0.00000000
     atom    5 type  6   force =     0.00001095    0.00003820   -0.00000286
     atom    6 type  6   force =    -0.00001095    0.00003820    0.00000286
     atom    7 type  6   force =     0.00000557   -0.00000131    0.00001299
     atom    8 type  6   force =    -0.00000557   -0.00000131   -0.00001299
     atom    9 type  6   force =     0.00001728   -0.00003537   -0.00002166
     atom   10 type  6   force =    -0.00001728   -0.00003537    0.00002166
     atom   11 type  6   force =    -0.00000000   -0.00000835    0.00000000
     atom   12 type  6   force =    -0.00000000   -0.00002071    0.00000000
     atom   13 type  6   force =    -0.00000000    0.00003561    0.00000000
     atom   14 type  6   force =    -0.00000000    0.00015069   -0.00000000
     atom   15 type  2   force =    -0.00000000   -0.00009823    0.00000000
     atom   16 type  3   force =    -0.00000000   -0.00020454    0.00000000
     atom   17 type  8   force =     0.00001505   -0.00000299    0.00001150
     atom   18 type  8   force =     0.00001642    0.00001172    0.00000866
     atom   19 type  8   force =    -0.00001505   -0.00000299   -0.00001150
     atom   20 type  8   force =    -0.00001642    0.00001172   -0.00000866
     atom   21 type  8   force =    -0.00001984    0.00000270    0.00000971
     atom   22 type  8   force =    -0.00000430   -0.00000155    0.00002250
     atom   23 type  8   force =     0.00001984    0.00000270   -0.00000971
     atom   24 type  8   force =     0.00000430   -0.00000155   -0.00002250
     atom   25 type  8   force =    -0.00001512   -0.00000004   -0.00003746
     atom   26 type  8   force =    -0.00002357   -0.00002966   -0.00000477
     atom   27 type  8   force =     0.00001512   -0.00000004    0.00003746
     atom   28 type  8   force =     0.00002357   -0.00002966    0.00000477
     atom   29 type  1   force =     0.00000872    0.00000085    0.00000920
     atom   30 type  1   force =     0.00002307    0.00000968   -0.00000868
     atom   31 type  1   force =    -0.00000872    0.00000085   -0.00000920
     atom   32 type  1   force =    -0.00002307    0.00000968    0.00000868
     atom   33 type  7   force =     0.00000541    0.00004604    0.00000576
     atom   34 type  7   force =     0.00004277    0.00005515    0.00002054
     atom   35 type  7   force =    -0.00000541    0.00004604   -0.00000576
     atom   36 type  7   force =    -0.00004277    0.00005515   -0.00002054
     atom   37 type  7   force =    -0.00001849   -0.00000744    0.00000825
     atom   38 type  7   force =    -0.00000012   -0.00000142    0.00002163
     atom   39 type  7   force =     0.00001849   -0.00000744   -0.00000825
     atom   40 type  7   force =     0.00000012   -0.00000142   -0.00002163
     atom   41 type  7   force =    -0.00006226   -0.00007172    0.00005584
     atom   42 type  7   force =    -0.00006867   -0.00012150    0.00003734
     atom   43 type  7   force =     0.00006226   -0.00007172   -0.00005584
     atom   44 type  7   force =     0.00006867   -0.00012150   -0.00003734
     atom   45 type  7   force =     0.00006721    0.00009377   -0.00011654
     atom   46 type  7   force =     0.00015605    0.00006216   -0.00010003
     atom   47 type  7   force =    -0.00006721    0.00009377    0.00011654
     atom   48 type  7   force =    -0.00015604    0.00006216    0.00010003
     atom   49 type  7   force =     0.00000537    0.00000779    0.00001716
     atom   50 type  7   force =     0.00001218    0.00003013    0.00003210
     atom   51 type  7   force =    -0.00000537    0.00000779   -0.00001716
     atom   52 type  7   force =    -0.00001218    0.00003013   -0.00003210
     atom   53 type  7   force =     0.00000726    0.00000278   -0.00000778
     atom   54 type  7   force =    -0.00000312    0.00000154   -0.00000838
     atom   55 type  7   force =    -0.00000726    0.00000278    0.00000778
     atom   56 type  7   force =     0.00000312    0.00000154    0.00000838
     atom   57 type  7   force =    -0.00000062    0.00000027    0.00001332
     atom   58 type  7   force =     0.00001195   -0.00001178    0.00001384
     atom   59 type  7   force =     0.00000062    0.00000027   -0.00001332
     atom   60 type  7   force =    -0.00001195   -0.00001178   -0.00001384
[...]
     atom   74 type  7   force =     0.00010916   -0.00005836    0.00001737
     atom   75 type  7   force =    -0.00011655   -0.00002724   -0.00007544
     atom   76 type  7   force =    -0.00010916   -0.00005836   -0.00001737
     atom   77 type  7   force =    -0.00001604    0.00002049    0.00000391
     atom   78 type  7   force =    -0.00000439    0.00004940   -0.00001039
     atom   79 type  7   force =     0.00001604    0.00002049   -0.00000391
     atom   80 type  7   force =     0.00000439    0.00004940    0.00001039
     atom   81 type  4   force =     0.00000960   -0.00000316   -0.00000511
     atom   82 type  4   force =     0.00001194   -0.00000604    0.00000233
     atom   83 type  4   force =    -0.00000960   -0.00000316    0.00000511
     atom   84 type  4   force =    -0.00001194   -0.00000604   -0.00000233
     atom   85 type  4   force =    -0.00000190    0.00000159   -0.00000003
     atom   86 type  4   force =    -0.00000097    0.00000595   -0.00000271
     atom   87 type  4   force =     0.00000190    0.00000159    0.00000003
     atom   88 type  4   force =     0.00000097    0.00000595    0.00000271

     DFT-D3 dispersion contribution to forces:
     atom    1 type  5   force =     0.00000012    0.00107879    0.00000005
     atom    2 type  5   force =    -0.00000011    0.00107879   -0.00000005
     atom    3 type  5   force =     0.00000000   -0.00098831    0.00000000
     atom    4 type  5   force =     0.00000000   -0.00098839    0.00000000
     atom    5 type  6   force =     0.00000015    0.00030367   -0.00000003
     atom    6 type  6   force =    -0.00000015    0.00030367    0.00000003
     atom    7 type  6   force =     0.00000002    0.00085878    0.00000004
     atom    8 type  6   force =    -0.00000002    0.00085878   -0.00000004
     atom    9 type  6   force =     0.00000025   -0.00122034    0.00000009
     atom   10 type  6   force =    -0.00000025   -0.00122034   -0.00000009
     atom   11 type  6   force =     0.00000000    0.00111540   -0.00000000
     atom   12 type  6   force =    -0.00000000    0.00111547   -0.00000000
     atom   13 type  6   force =     0.00000000   -0.00033463   -0.00000000
     atom   14 type  6   force =    -0.00000000   -0.00033432   -0.00000000
     atom   15 type  2   force =    -0.00000000   -0.00061609   -0.00000000
     atom   16 type  3   force =    -0.00000000   -0.00061646   -0.00000000
     atom   17 type  8   force =     0.00004437   -0.00016112   -0.00032467
     atom   18 type  8   force =     0.00004437   -0.00016112   -0.00032467
     atom   19 type  8   force =    -0.00004437   -0.00016112    0.00032467
     atom   20 type  8   force =    -0.00004437   -0.00016112    0.00032467
     atom   21 type  8   force =     0.00002467    0.00015741    0.00026463
     atom   22 type  8   force =     0.00002465    0.00015741    0.00026468
     atom   23 type  8   force =    -0.00002467    0.00015741   -0.00026463
     atom   24 type  8   force =    -0.00002465    0.00015741   -0.00026468
     atom   25 type  8   force =    -0.00010057    0.00010100   -0.00001615
     atom   26 type  8   force =    -0.00010057    0.00010097   -0.00001616
     atom   27 type  8   force =     0.00010057    0.00010100    0.00001615
     atom   28 type  8   force =     0.00010057    0.00010097    0.00001616
     atom   29 type  1   force =     0.00012447    0.00016220   -0.00107099
     atom   30 type  1   force =     0.00012441    0.00016216   -0.00107101
     atom   31 type  1   force =    -0.00012447    0.00016220    0.00107099
     atom   32 type  1   force =    -0.00012441    0.00016216    0.00107101
     atom   33 type  7   force =    -0.00002076    0.00001277    0.00043843
     atom   34 type  7   force =    -0.00002073    0.00001274    0.00043849
     atom   35 type  7   force =     0.00002076    0.00001277   -0.00043843
     atom   36 type  7   force =     0.00002073    0.00001274   -0.00043849
     atom   37 type  7   force =     0.00001526    0.00004318   -0.00038969
     atom   38 type  7   force =     0.00001522    0.00004318   -0.00038977
     atom   39 type  7   force =    -0.00001526    0.00004318    0.00038969
     atom   40 type  7   force =    -0.00001522    0.00004318    0.00038977
     atom   41 type  7   force =    -0.00004031   -0.00008156    0.00046850
     atom   42 type  7   force =    -0.00004030   -0.00008150    0.00046846
     atom   43 type  7   force =     0.00004031   -0.00008156   -0.00046850
     atom   44 type  7   force =     0.00004030   -0.00008150   -0.00046846
     atom   45 type  7   force =    -0.00002045    0.00003434    0.00005434
     atom   46 type  7   force =    -0.00002045    0.00003429    0.00005439
     atom   47 type  7   force =     0.00002045    0.00003434   -0.00005434
     atom   48 type  7   force =     0.00002045    0.00003429   -0.00005439
     atom   49 type  7   force =    -0.00018546    0.00098877    0.00031680
     atom   50 type  7   force =    -0.00018542    0.00098876    0.00031682
     atom   51 type  7   force =     0.00018546    0.00098877   -0.00031680
     atom   52 type  7   force =     0.00018542    0.00098876   -0.00031682
     atom   53 type  7   force =     0.00083800    0.00007110    0.00019913
     atom   54 type  7   force =     0.00083799    0.00007111    0.00019912
     atom   55 type  7   force =    -0.00083800    0.00007110   -0.00019913
     atom   56 type  7   force =    -0.00083799    0.00007111   -0.00019912
     atom   57 type  7   force =     0.00032611   -0.00049091    0.00005348
     atom   58 type  7   force =     0.00032602   -0.00049088    0.00005348
     atom   59 type  7   force =    -0.00032611   -0.00049091   -0.00005348
     atom   60 type  7   force =    -0.00032602   -0.00049088   -0.00005348
[...]
     atom   74 type  7   force =     0.00013973   -0.00001458   -0.00044950
     atom   75 type  7   force =    -0.00013981   -0.00001458    0.00044943
     atom   76 type  7   force =    -0.00013973   -0.00001458    0.00044950
     atom   77 type  7   force =     0.00001337    0.00005622   -0.00051155
     atom   78 type  7   force =     0.00001338    0.00005621   -0.00051153
     atom   79 type  7   force =    -0.00001337    0.00005622    0.00051155
     atom   80 type  7   force =    -0.00001338    0.00005621    0.00051153
     atom   81 type  4   force =    -0.00002869    0.00005771   -0.00012152
     atom   82 type  4   force =    -0.00002883    0.00005781   -0.00012129
     atom   83 type  4   force =     0.00002869    0.00005771    0.00012152
     atom   84 type  4   force =     0.00002883    0.00005781    0.00012129
     atom   85 type  4   force =     0.00001950   -0.00037440   -0.00033550
     atom   86 type  4   force =     0.00001954   -0.00037437   -0.00033546
     atom   87 type  4   force =    -0.00001950   -0.00037440    0.00033550
     atom   88 type  4   force =    -0.00001954   -0.00037437    0.00033546

     Total force =     0.003360     Total SCF correction =     0.000637

     DFT-D3 dispersion Force =     0.006439
     SCF correction compared to forces is large: reduce conv_thr to get better values

     Computing stress (Cartesian axis) and pressure

     negative rho (up, down):  4.810E-04 4.811E-04
          total   stress  (Ry/bohr**3)                   (kbar)     P=       -0.12
  -0.00000098   0.00000000   0.00000013           -0.14        0.00        0.02
   0.00000000  -0.00000189   0.00000000            0.00       -0.28        0.00
   0.00000013   0.00000000   0.00000036            0.02        0.00        0.05

     kinetic stress (kbar)  20102.13      0.00     18.99
                                0.00  20020.32      0.00
                               18.99      0.00  19848.50

     local   stress (kbar) -40452.63      0.00    148.90
                                0.00 -40283.22      0.00
                              148.90      0.00  19338.23

     nonloc. stress (kbar)   3793.25      0.00      0.49
                                0.00   3795.09      0.00
                                0.49      0.00   3771.66

     hartree stress (kbar)  22801.81     -0.00    -56.28
                               -0.00  22724.95     -0.00
                              -56.28     -0.00  -6432.08

     exc-cor stress (kbar)  -2815.98      0.00     -0.09
                                0.00  -2816.37     -0.00
                               -0.09     -0.00  -2812.75

     corecor stress (kbar)  -1854.92     -0.00     -0.06
                               -0.00  -1854.43      0.00
                               -0.06      0.00  -1856.61

     ewald   stress (kbar)  -1559.28     -0.00   -112.09
                               -0.00  -1571.88     -0.00
                             -112.09     -0.00 -31845.97

     hubbard stress (kbar)      0.00      0.00      0.00
                                0.00      0.00      0.00
                                0.00      0.00      0.00

     DFT-D   stress (kbar)    -14.53     -0.00      0.16
                               -0.00    -14.75      0.00
                                0.16      0.00    -10.92

     XDM     stress (kbar)      0.00      0.00      0.00
                                0.00      0.00      0.00
                                0.00      0.00      0.00

     dft-nl  stress (kbar)      0.00      0.00      0.00
                                0.00      0.00      0.00
                                0.00      0.00      0.00

     TS-vdW  stress (kbar)      0.00      0.00      0.00
                                0.00      0.00      0.00
                                0.00      0.00      0.00

     MDB     stress (kbar)      0.00      0.00      0.00
                                0.00      0.00      0.00
                                0.00      0.00      0.00

     3D-RISM stress (kbar)      0.00      0.00      0.00
                                0.00      0.00      0.00
                                0.00      0.00      0.00

     Writing all to output data dir ./temp/phl-fe1-fe4x2.save/ :
     XML data file, charge density, pseudopotentials, collected wavefunctions

     General routines

     Parallel routines

     PAW routines

   This run was terminated on:  10:58: 2  11Jan2025

   JOB DONE.