     Program PWSCF v.7.3.1 starts on 16Jan2025 at 16: 3:12

     Reading input from vc_relax.in

     Current dimensions of program PWSCF are:
     Max number of different atomic species (ntypx) = 10
     Max number of k-points (npk) =  40000
     Max angular momentum in pseudopotentials (lmaxx) =  4
     file Al.pbe-n-kjpaw_psl.1.0.0.UPF: wavefunction(s)  3S 3P renormalized
     file Fe.pbe-spn-kjpaw_psl.1.0.0.UPF: wavefunction(s)  3P 3D renormalized
     file H.pbe-kjpaw_psl.1.0.0.UPF: wavefunction(s)  1S renormalized
     file K.pbe-spn-kjpaw_psl.1.0.0.UPF: wavefunction(s)  3S renormalized
     file Mg.pbe-spnl-kjpaw_psl.1.0.0.UPF: wavefunction(s)  2P renormalized
     file O.pbe-n-kjpaw_psl.1.0.0.UPF: wavefunction(s)  2S 2P renormalized
     file Si.pbe-n-kjpaw_psl.1.0.0.UPF: wavefunction(s)  3S 3P renormalized

     R & G space division:  proc/nbgrp/npool/nimage =       4
     Subspace diagonalization in iterative solution of the eigenvalue problem:
     one sub-group per band group will be used

     Using Slab Decomposition

     bravais-lattice index     =          -12
     lattice parameter (alat)  =      10.0136  a.u.
     unit-cell volume          =    3303.4414 (a.u.)^3
     number of atoms/cell      =           44
     number of atomic types    =            7
     number of electrons       =       262.00
     number of Kohn-Sham states=          157
     kinetic-energy cutoff     =      60.0000  Ry
     charge density cutoff     =     480.0000  Ry
     scf convergence threshold =      1.0E-06
     mixing beta               =       0.7000
     number of iterations used =            8  plain     mixing
     energy convergence thresh.=      1.0E-04
     force convergence thresh. =      1.0E-03
     press convergence thresh. =      5.0E-01
     Exchange-correlation= SLA  PW   PBX  PBC
                           (   1   4   3   4   0   0   0)
     nstep                     =           50

     celldm(1)=  10.013640  celldm(2)=   1.735306  celldm(3)=   1.926511
     celldm(4)=   0.000000  celldm(5)=  -0.177565  celldm(6)=   0.000000

     crystal axes: (cart. coord. in units of alat)
               a(1) = (   1.000000   0.000000   0.000000 )
               a(2) = (   0.000000   1.735306   0.000000 )
               a(3) = (  -0.342081   0.000000   1.895896 )

     reciprocal axes: (cart. coord. in units 2 pi/alat)
               b(1) = (  1.000000 -0.000000  0.180432 )
               b(2) = (  0.000000  0.576267 -0.000000 )
               b(3) = (  0.000000  0.000000  0.527455 )

     PseudoPot. # 1 for Al read from file:
     ./../../../pseudos/Al.pbe-n-kjpaw_psl.1.0.0.UPF
     MD5 check sum: 502b6b27b9c6270cab5dd1084b96fa6d
     Pseudo is Projector augmented-wave + core cor, Zval =  3.0
     Generated using &quot;atomic&quot; code by A. Dal Corso  v.6.3
     Shape of augmentation charge: PSQ
     Using radial grid of 1135 points,  6 beta functions with:
                l(1) =   0
                l(2) =   0
                l(3) =   1
                l(4) =   1
                l(5) =   2
                l(6) =   2
     Q(r) pseudized with 0 coefficients

     PseudoPot. # 2 for Fe read from file:
     ./../../../pseudos/Fe.pbe-spn-kjpaw_psl.1.0.0.UPF
     MD5 check sum: fc81f059e5c5069939230b1155715ae8
     Pseudo is Projector augmented-wave + core cor, Zval = 16.0
     Generated using &quot;atomic&quot; code by A. Dal Corso  v.6.3
     Shape of augmentation charge: PSQ
     Using radial grid of 1191 points,  6 beta functions with:
                l(1) =   0
                l(2) =   0
                l(3) =   1
                l(4) =   1
                l(5) =   2
                l(6) =   2
     Q(r) pseudized with 0 coefficients

     PseudoPot. # 3 for H  read from file:
     ./../../../pseudos/H.pbe-kjpaw_psl.1.0.0.UPF
     MD5 check sum: d81a744832360e4a8af0b0b5b123bc2a
     Pseudo is Projector augmented-wave, Zval =  1.0
     Generated using &quot;atomic&quot; code by A. Dal Corso  v.6.3MaX
     Shape of augmentation charge: PSQ
     Using radial grid of  929 points,  2 beta functions with:
                l(1) =   0
                l(2) =   0
     Q(r) pseudized with 0 coefficients

     PseudoPot. # 4 for K  read from file:
     ./../../../pseudos/K.pbe-spn-kjpaw_psl.1.0.0.UPF
     MD5 check sum: 34cc42130a09071ebe376fd42eb21491
     Pseudo is Projector augmented-wave + core cor, Zval =  9.0
     Generated using &quot;atomic&quot; code by A. Dal Corso  v.6.2.2
     Shape of augmentation charge: PSQ
     Using radial grid of 1165 points,  6 beta functions with:
                l(1) =   0
                l(2) =   0
                l(3) =   1
                l(4) =   1
                l(5) =   2
                l(6) =   2
     Q(r) pseudized with 0 coefficients

     PseudoPot. # 5 for Mg read from file:
     ./../../../pseudos/Mg.pbe-spnl-kjpaw_psl.1.0.0.UPF
     MD5 check sum: fda14e0d92a6a9a5ebed782e5a4b3067
     Pseudo is Projector augmented-wave + core cor, Zval = 10.0
     Generated using &quot;atomic&quot; code by A. Dal Corso  v.6.3
     Shape of augmentation charge: PSQ
     Using radial grid of 1129 points,  4 beta functions with:
                l(1) =   0
                l(2) =   0
                l(3) =   1
                l(4) =   1
     Q(r) pseudized with 0 coefficients

     PseudoPot. # 6 for O  read from file:
     ./../../../pseudos/O.pbe-n-kjpaw_psl.1.0.0.UPF
     MD5 check sum: e99d9cef9b487d1ca56f5b95ecd0fd7a
     Pseudo is Projector augmented-wave + core cor, Zval =  6.0
     Generated using &quot;atomic&quot; code by A. Dal Corso  v.6.3
     Shape of augmentation charge: PSQ
     Using radial grid of 1095 points,  4 beta functions with:
                l(1) =   0
                l(2) =   0
                l(3) =   1
                l(4) =   1
     Q(r) pseudized with 0 coefficients

     PseudoPot. # 7 for Si read from file:
     ./../../../pseudos/Si.pbe-n-kjpaw_psl.1.0.0.UPF
     MD5 check sum: c39c59da582df4a0d9f10159256ea34e
     Pseudo is Projector augmented-wave + core cor, Zval =  4.0
     Generated using &quot;atomic&quot; code by A. Dal Corso  v.6.3
     Shape of augmentation charge: PSQ
     Using radial grid of 1141 points,  6 beta functions with:
                l(1) =   0
                l(2) =   0
                l(3) =   1
                l(4) =   1
                l(5) =   2
                l(6) =   2
     Q(r) pseudized with 0 coefficients

     atomic species   valence    mass     pseudopotential
     Al                3.00    26.98154     Al( 1.00)
     Fe               16.00    55.84500     Fe( 1.00)
     H                 1.00     1.00794     H ( 1.00)
     K                 9.00    39.09830     K ( 1.00)
     Mg               10.00    24.30500     Mg( 1.00)
     O                 6.00    15.99940     O ( 1.00)
     Si                4.00    28.08550     Si( 1.00)

     Starting magnetic structure
     atomic species   magnetization
     Al              0.000
     Fe              0.300
     H               0.000
     K               0.000
     Mg              0.000
     O               0.000
     Si              0.000

      2 Sym. Ops. (no inversion) found

                                    s                        frac. trans.

      isym =  1     identity

 cryst.   s( 1) = (     1          0          0      )
                  (     0          1          0      )
                  (     0          0          1      )

 cart.    s( 1) = (  1.0000000  0.0000000 -0.0000000 )
                  (  0.0000000  1.0000000  0.0000000 )
                  (  0.0000000  0.0000000  1.0000000 )

      isym =  2     180 deg rotation - cart. axis [0,1,0]

[...]

     point group C_2  (2)
     there are  2 classes
     the character table:

       E     C2
A      1.00  1.00
B      1.00 -1.00

     the symmetry operations in each class and the name of the first element:

     E        1
          identity
     C2       2
          180 deg rotation - cart. axis [0,1,0]

   Cartesian axes

     site n.     atom                  positions (alat units)
         1        K      tau(   1) = (   0.0000000   0.8568164   0.0000000  )
         2        K      tau(   2) = (   0.5000000   0.0051438   0.0000000  )
         3        Mg     tau(   3) = (  -0.1710407   0.5782189   0.9479482  )
         4        Mg     tau(   4) = (  -0.1710407   1.1534208   0.9479482  )
         5        Mg     tau(   5) = (   0.3289593   0.8553594   0.9479482  )
         6        Mg     tau(   6) = (   0.3289593   1.4439657   0.9479482  )
         7        Mg     tau(   7) = (   0.3289593   0.3034278   0.9479482  )
         8        Si     tau(   8) = (   0.0096371   0.2880685   0.4183861  )
         9        Si     tau(   9) = (   0.6482816   0.2880685   1.4775103  )
        10        Si     tau(  10) = (   0.6692013   1.4463648   1.4645156  )
        11        Si     tau(  11) = (  -0.0112827   1.4463648   0.4313808  )
        12        Si     tau(  12) = (   0.4869722   1.1564223   0.4264417  )
        13        Si     tau(  13) = (   0.1709465   1.1564223   1.4694547  )
        14        Al     tau(  14) = (   0.1488663   0.5747376   1.4741733  )
        15        Al     tau(  15) = (   0.5090524   0.5747376   0.4217230  )
        16        O      tau(  16) = (   0.0018911   0.2942505   0.7264748  )
        17        O      tau(  17) = (   0.6560275   0.2942505   1.1694217  )
        18        O      tau(  18) = (   0.6605362   1.4359923   1.1596455  )
        19        O      tau(  19) = (  -0.0026175   1.4359923   0.7362509  )
        20        O      tau(  20) = (   0.4928860   1.1608160   0.7332181  )
        21        O      tau(  21) = (   0.1650326   1.1608160   1.1626784  )
        22        O      tau(  22) = (   0.1539971   0.5781441   1.1475620  )
        23        O      tau(  23) = (   0.5039216   0.5781441   0.7483344  )
        24        O      tau(  24) = (   0.2887372   0.3512858   0.3077595  )
        25        O      tau(  25) = (   0.3691815   0.3512858   1.5881368  )
        26        O      tau(  26) = (   0.9381934   1.7307306   0.3196866  )
        27        O      tau(  27) = (  -0.2802748   1.7307306   1.5762098  )
        28        O      tau(  28) = (   0.3973901   1.3456539   1.5804573  )
        29        O      tau(  29) = (   0.2605286   1.3456539   0.3154391  )
        30        O      tau(  30) = (   0.7587868   1.2702435   0.3152007  )
        31        O      tau(  31) = (  -0.1008681   1.2702435   1.5806957  )
        32        O      tau(  32) = (   0.4408032   0.8811753   0.3033788  )
        33        O      tau(  33) = (   0.2171154   0.8811753   1.5925176  )
        34        O      tau(  34) = (  -0.1459717   0.4806286   1.5983018  )
        35        O      tau(  35) = (   0.8038904   0.4806286   0.2975946  )
        36        O      tau(  36) = (  -0.0035216   0.8741027   0.7476076  )
        37        O      tau(  37) = (   0.6614403   0.8741027   1.1482888  )
        38        O      tau(  38) = (   0.4912894   1.7343221   0.7541263  )
        39        O      tau(  39) = (   0.1666293   1.7343221   1.1417700  )
        40        H      tau(  40) = (  -0.0022387   0.8583080   0.5661678  )
[...]
     atom    2 type  4   force =     0.00000000    0.00162435   -0.00000000
     atom    3 type  5   force =    -0.00000000    0.00031118    0.00000000
     atom    4 type  5   force =    -0.00000000   -0.00038967    0.00000000
     atom    5 type  5   force =     0.00000000   -0.00080919    0.00000000
     atom    6 type  5   force =     0.00000000    0.00012371    0.00000000
     atom    7 type  5   force =    -0.00000000    0.00054612   -0.00000000
     atom    8 type  7   force =     0.00238011    0.01144051    0.00601270
     atom    9 type  7   force =    -0.00238014    0.01144051   -0.00601262
     atom   10 type  7   force =    -0.00009613    0.00215802   -0.01426446
     atom   11 type  7   force =     0.00009610    0.00215803    0.01426446
     atom   12 type  7   force =    -0.00132352   -0.01191666    0.01070442
     atom   13 type  7   force =     0.00132352   -0.01191666   -0.01070442
     atom   14 type  1   force =    -0.00043928   -0.00218738   -0.01000105
     atom   15 type  1   force =     0.00043932   -0.00218738    0.01000099
     atom   16 type  6   force =     0.00028455    0.00128474    0.00617999
     atom   17 type  6   force =    -0.00028456    0.00128473   -0.00617999
     atom   18 type  6   force =    -0.00042961   -0.00080848   -0.00683488
     atom   19 type  6   force =     0.00042961   -0.00080848    0.00683488
     atom   20 type  6   force =     0.00008138   -0.00028798    0.00683164
     atom   21 type  6   force =    -0.00008140   -0.00028798   -0.00683163
     atom   22 type  6   force =     0.00004951    0.00012294   -0.00316874
     atom   23 type  6   force =    -0.00004950    0.00012294    0.00316876
     atom   24 type  6   force =     0.00458379   -0.00162733   -0.00594354
     atom   25 type  6   force =    -0.00458380   -0.00162733    0.00594350
     atom   26 type  6   force =    -0.00333157    0.00078164   -0.00684982
     atom   27 type  6   force =     0.00333156    0.00078164    0.00684983
     atom   28 type  6   force =    -0.00150021    0.00207257    0.00744295
     atom   29 type  6   force =     0.00150021    0.00207258   -0.00744294
     atom   30 type  6   force =     0.00069503   -0.00182326   -0.00746454
     atom   31 type  6   force =    -0.00069503   -0.00182325    0.00746457
     atom   32 type  6   force =    -0.00222518   -0.00351674   -0.00645745
     atom   33 type  6   force =     0.00222515   -0.00351674    0.00645745
     atom   34 type  6   force =     0.00125266    0.00395874    0.00646773
     atom   35 type  6   force =    -0.00125266    0.00395875   -0.00646772
     atom   36 type  6   force =    -0.00010988    0.00058349    0.01136722
     atom   37 type  6   force =     0.00010988    0.00058349   -0.01136722
     atom   38 type  6   force =    -0.00237301   -0.00137836    0.01079636
     atom   39 type  6   force =     0.00237302   -0.00137835   -0.01079634
     atom   40 type  3   force =     0.00000000    0.00000000    0.00000000
     atom   41 type  3   force =     0.00000000    0.00000000    0.00000000
     atom   42 type  3   force =     0.00000000    0.00000000    0.00000000
     atom   43 type  3   force =     0.00000000    0.00000000    0.00000000
     atom   44 type  2   force =     0.00000000    0.00146440   -0.00000000
     The Hubbard contrib.    to forces
     atom    1 type  4   force =     0.00000000    0.00000000    0.00000000
     atom    2 type  4   force =     0.00000000    0.00000000    0.00000000
     atom    3 type  5   force =     0.00000000    0.00000000    0.00000000
     atom    4 type  5   force =     0.00000000    0.00000000    0.00000000
     atom    5 type  5   force =     0.00000000    0.00000000    0.00000000
     atom    6 type  5   force =     0.00000000    0.00000000    0.00000000
     atom    7 type  5   force =     0.00000000    0.00000000    0.00000000
     atom    8 type  7   force =     0.00000000    0.00000000    0.00000000
     atom    9 type  7   force =     0.00000000    0.00000000    0.00000000
     atom   10 type  7   force =     0.00000000    0.00000000    0.00000000
     atom   11 type  7   force =     0.00000000    0.00000000    0.00000000
     atom   12 type  7   force =     0.00000000    0.00000000    0.00000000
     atom   13 type  7   force =     0.00000000    0.00000000    0.00000000
     atom   14 type  1   force =     0.00000000    0.00000000    0.00000000
     atom   15 type  1   force =     0.00000000    0.00000000    0.00000000
     atom   16 type  6   force =     0.00000000    0.00000000    0.00000000
     atom   17 type  6   force =     0.00000000    0.00000000    0.00000000
     atom   18 type  6   force =     0.00000000    0.00000000    0.00000000
     atom   19 type  6   force =     0.00000000    0.00000000    0.00000000
     atom   20 type  6   force =     0.00000000    0.00000000    0.00000000
     atom   21 type  6   force =     0.00000000    0.00000000    0.00000000
     atom   22 type  6   force =     0.00000000    0.00000000    0.00000000
     atom   23 type  6   force =     0.00000000    0.00000000    0.00000000
     atom   24 type  6   force =     0.00000000    0.00000000    0.00000000
     atom   25 type  6   force =     0.00000000    0.00000000    0.00000000
     atom   26 type  6   force =     0.00000000    0.00000000    0.00000000
     atom   27 type  6   force =     0.00000000    0.00000000    0.00000000
     atom   28 type  6   force =     0.00000000    0.00000000    0.00000000
     atom   29 type  6   force =     0.00000000    0.00000000    0.00000000
     atom   30 type  6   force =     0.00000000    0.00000000    0.00000000
     atom   31 type  6   force =     0.00000000    0.00000000    0.00000000
     atom   32 type  6   force =     0.00000000    0.00000000    0.00000000
     atom   33 type  6   force =     0.00000000    0.00000000    0.00000000
     atom   34 type  6   force =     0.00000000    0.00000000    0.00000000
     atom   35 type  6   force =     0.00000000    0.00000000    0.00000000
     atom   36 type  6   force =     0.00000000    0.00000000    0.00000000
     atom   37 type  6   force =     0.00000000    0.00000000    0.00000000
     atom   38 type  6   force =     0.00000000    0.00000000    0.00000000
     atom   39 type  6   force =     0.00000000    0.00000000    0.00000000
     atom   40 type  3   force =     0.00000000    0.00000000    0.00000000
     atom   41 type  3   force =     0.00000000    0.00000000    0.00000000
     atom   42 type  3   force =     0.00000000    0.00000000    0.00000000
     atom   43 type  3   force =     0.00000000    0.00000000    0.00000000
     atom   44 type  2   force =     0.00000000    0.00000000    0.00000000
     The SCF correction term to forces
     atom    1 type  4   force =    -0.00000000   -0.00003047    0.00000000
     atom    2 type  4   force =     0.00000000    0.00004013   -0.00000000
     atom    3 type  5   force =     0.00000000    0.00009019    0.00000000
     atom    4 type  5   force =     0.00000000   -0.00003658   -0.00000000
     atom    5 type  5   force =    -0.00000000    0.00028282   -0.00000000
     atom    6 type  5   force =    -0.00000000   -0.00006432    0.00000000
     atom    7 type  5   force =     0.00000000   -0.00024018   -0.00000000
     atom    8 type  7   force =    -0.00001249   -0.00002957    0.00001717
     atom    9 type  7   force =     0.00001249   -0.00002957   -0.00001717
     atom   10 type  7   force =     0.00001043    0.00001138   -0.00001295
     atom   11 type  7   force =    -0.00001043    0.00001138    0.00001295
     atom   12 type  7   force =     0.00000839    0.00001555    0.00003155
     atom   13 type  7   force =    -0.00000839    0.00001555   -0.00003155
     atom   14 type  1   force =    -0.00000098   -0.00000053    0.00006755
     atom   15 type  1   force =     0.00000098   -0.00000053   -0.00006755
     atom   16 type  6   force =    -0.00001415   -0.00003606   -0.00002781
     atom   17 type  6   force =     0.00001415   -0.00003606    0.00002781
     atom   18 type  6   force =    -0.00000542    0.00000825   -0.00007604
     atom   19 type  6   force =     0.00000542    0.00000825    0.00007604
     atom   20 type  6   force =    -0.00001158   -0.00000725    0.00008362
     atom   21 type  6   force =     0.00001158   -0.00000725   -0.00008362
     atom   22 type  6   force =    -0.00002136    0.00003917    0.00012103
     atom   23 type  6   force =     0.00002136    0.00003917   -0.00012103
     atom   24 type  6   force =     0.00006370    0.00005205    0.00004418
     atom   25 type  6   force =    -0.00006370    0.00005205   -0.00004418
     atom   26 type  6   force =    -0.00005123    0.00007898    0.00005437
     atom   27 type  6   force =     0.00005123    0.00007898   -0.00005437
     atom   28 type  6   force =    -0.00005004   -0.00000535   -0.00001755
     atom   29 type  6   force =     0.00005004   -0.00000535    0.00001755
     atom   30 type  6   force =    -0.00003614   -0.00003032    0.00002219
     atom   31 type  6   force =     0.00003614   -0.00003032   -0.00002219
     atom   32 type  6   force =     0.00001768   -0.00006910    0.00003636
     atom   33 type  6   force =    -0.00001768   -0.00006910   -0.00003636
     atom   34 type  6   force =     0.00006618    0.00001334   -0.00006761
     atom   35 type  6   force =    -0.00006618    0.00001334    0.00006761
     atom   36 type  6   force =    -0.00000000    0.00001832    0.00005451
     atom   37 type  6   force =     0.00000000    0.00001832   -0.00005451
     atom   38 type  6   force =     0.00008240   -0.00001470    0.00003689
     atom   39 type  6   force =    -0.00008240   -0.00001470   -0.00003689
     atom   40 type  3   force =    -0.00000045    0.00000053    0.00000050
     atom   41 type  3   force =     0.00000045    0.00000053   -0.00000050
     atom   42 type  3   force =     0.00000602   -0.00000466    0.00002889
     atom   43 type  3   force =    -0.00000602   -0.00000466   -0.00002889
     atom   44 type  2   force =    -0.00000000   -0.00005488    0.00000000

     DFT-D3 dispersion contribution to forces:
     atom    1 type  4   force =    -0.00000000    0.00111529   -0.00000000
     atom    2 type  4   force =     0.00000000   -0.00088244    0.00000000
     atom    3 type  5   force =    -0.00000000    0.00062529    0.00000000
     atom    4 type  5   force =     0.00000000   -0.00106244    0.00000000
     atom    5 type  5   force =     0.00000000   -0.00061517    0.00000000
     atom    6 type  5   force =     0.00000000    0.00109667   -0.00000000
     atom    7 type  5   force =     0.00000000   -0.00012532   -0.00000000
     atom    8 type  7   force =     0.00000561   -0.00013564   -0.00012019
     atom    9 type  7   force =    -0.00000561   -0.00013564    0.00012019
     atom   10 type  7   force =     0.00008038    0.00013950    0.00003157
     atom   11 type  7   force =    -0.00008039    0.00013950   -0.00003157
     atom   12 type  7   force =    -0.00001112    0.00004969   -0.00025192
     atom   13 type  7   force =     0.00001112    0.00004969    0.00025192
     atom   14 type  1   force =     0.00003280    0.00020278   -0.00083388
     atom   15 type  1   force =    -0.00003280    0.00020278    0.00083388
     atom   16 type  6   force =    -0.00002196   -0.00000813    0.00049212
     atom   17 type  6   force =     0.00002196   -0.00000813   -0.00049212
     atom   18 type  6   force =     0.00004814    0.00004054   -0.00046252
     atom   19 type  6   force =    -0.00004814    0.00004054    0.00046252
     atom   20 type  6   force =    -0.00002383   -0.00008301    0.00042885
     atom   21 type  6   force =     0.00002383   -0.00008301   -0.00042885
     atom   22 type  6   force =    -0.00000413    0.00000795    0.00006964
     atom   23 type  6   force =     0.00000413    0.00000795   -0.00006964
     atom   24 type  6   force =    -0.00017069    0.00099162    0.00032420
     atom   25 type  6   force =     0.00017069    0.00099162   -0.00032420
     atom   26 type  6   force =     0.00085220    0.00007709    0.00020131
     atom   27 type  6   force =    -0.00085220    0.00007709   -0.00020131
     atom   28 type  6   force =     0.00033884   -0.00052975    0.00002890
     atom   29 type  6   force =    -0.00033884   -0.00052975   -0.00002890
     atom   30 type  6   force =    -0.00016866    0.00025166   -0.00009220
     atom   31 type  6   force =     0.00016866    0.00025166    0.00009220
     atom   32 type  6   force =     0.00093996   -0.00044005    0.00042944
     atom   33 type  6   force =    -0.00093996   -0.00044005   -0.00042944
     atom   34 type  6   force =     0.00066454   -0.00051345   -0.00046474
     atom   35 type  6   force =    -0.00066454   -0.00051345    0.00046474
     atom   36 type  6   force =    -0.00000454   -0.00003607   -0.00050119
     atom   37 type  6   force =     0.00000454   -0.00003607    0.00050119
     atom   38 type  6   force =     0.00011979    0.00003284   -0.00050979
     atom   39 type  6   force =    -0.00011979    0.00003284    0.00050979
     atom   40 type  3   force =     0.00000749    0.00009347   -0.00030515
     atom   41 type  3   force =    -0.00000749    0.00009347    0.00030515
     atom   42 type  3   force =    -0.00003351   -0.00037699   -0.00021422
     atom   43 type  3   force =     0.00003351   -0.00037699    0.00021422
     atom   44 type  2   force =    -0.00000000    0.00032003   -0.00000000

     Total force =     0.003255     Total SCF correction =     0.000587

     DFT-D3 dispersion Force =     0.004366
     SCF correction compared to forces is large: reduce conv_thr to get better values

     Computing stress (Cartesian axis) and pressure

     negative rho (up, down):  0.000E+00 3.658E-04
          total   stress  (Ry/bohr**3)                   (kbar)     P=       -0.14
   0.00000074   0.00000000  -0.00000110            0.11        0.00       -0.16
   0.00000000  -0.00000021   0.00000000            0.00       -0.03        0.00
  -0.00000110   0.00000000  -0.00000343           -0.16        0.00       -0.50

     kinetic stress (kbar)  19983.37      0.00    -17.07
                                0.00  20072.13      0.00
                              -17.07      0.00  19802.35

     local   stress (kbar) -40724.96      0.00    107.57
                                0.00 -39913.77     -0.00
                              107.57     -0.00  18969.15

     nonloc. stress (kbar)   3789.89      0.00      4.71
                                0.00   3781.77      0.00
                                4.71      0.00   3768.72

     hartree stress (kbar)  22919.95     -0.00    -51.59
                               -0.00  22560.83      0.00
                              -51.59      0.00  -6275.50

     exc-cor stress (kbar)  -2810.92     -0.00     -0.28
                               -0.00  -2810.85      0.00
                               -0.28      0.00  -2807.37

     corecor stress (kbar)  -1850.92      0.00      0.16
                                0.00  -1851.61     -0.00
                                0.16     -0.00  -1853.30

     ewald   stress (kbar)  -1291.78     -0.00    -43.80
                               -0.00  -1823.79      0.00
                              -43.80      0.00 -31593.71

     hubbard stress (kbar)      0.00      0.00      0.00
                                0.00      0.00      0.00
                                0.00      0.00      0.00

     DFT-D   stress (kbar)    -14.52     -0.00      0.14
                               -0.00    -14.74     -0.00
                                0.14     -0.00    -10.84

     XDM     stress (kbar)      0.00      0.00      0.00
                                0.00      0.00      0.00
                                0.00      0.00      0.00

     dft-nl  stress (kbar)      0.00      0.00      0.00
                                0.00      0.00      0.00
                                0.00      0.00      0.00

     TS-vdW  stress (kbar)      0.00      0.00      0.00
                                0.00      0.00      0.00
                                0.00      0.00      0.00

     MDB     stress (kbar)      0.00      0.00      0.00
                                0.00      0.00      0.00
                                0.00      0.00      0.00

     3D-RISM stress (kbar)      0.00      0.00      0.00
                                0.00      0.00      0.00
                                0.00      0.00      0.00

     Writing all to output data dir ./temp/phl-fe1-fe1.save/ :
     XML data file, charge density, pseudopotentials, collected wavefunctions

     General routines

     Parallel routines

     PAW routines

   This run was terminated on:   2: 7:24  17Jan2025

   JOB DONE.