     Program PWSCF v.7.3.1 starts on 29Jan2025 at 12:31:21

     Reading input from vc_relax.in

     Current dimensions of program PWSCF are:
     Max number of different atomic species (ntypx) = 10
     Max number of k-points (npk) =  40000
     Max angular momentum in pseudopotentials (lmaxx) =  4
     file Al.pbe-n-kjpaw_psl.1.0.0.UPF: wavefunction(s)  3S 3P renormalized
     file Fe.pbe-spn-kjpaw_psl.1.0.0.UPF: wavefunction(s)  3P 3D renormalized
     file Fe.pbe-spn-kjpaw_psl.1.0.0.UPF: wavefunction(s)  3P 3D renormalized
     file H.pbe-kjpaw_psl.1.0.0.UPF: wavefunction(s)  1S renormalized
     file K.pbe-spn-kjpaw_psl.1.0.0.UPF: wavefunction(s)  3S renormalized
     file Mg.pbe-spnl-kjpaw_psl.1.0.0.UPF: wavefunction(s)  2P renormalized
     file O.pbe-n-kjpaw_psl.1.0.0.UPF: wavefunction(s)  2S 2P renormalized
     file Si.pbe-n-kjpaw_psl.1.0.0.UPF: wavefunction(s)  3S 3P renormalized

     R & G space division:  proc/nbgrp/npool/nimage =       6
     Subspace diagonalization in iterative solution of the eigenvalue problem:
     one sub-group per band group will be used

     Using Slab Decomposition

     bravais-lattice index     =          -12
     lattice parameter (alat)  =      20.1351  a.u.
     unit-cell volume          =    6828.4878 (a.u.)^3
     number of atoms/cell      =           88
     number of atomic types    =            8
     number of electrons       =       524.00
     number of Kohn-Sham states=          314
     kinetic-energy cutoff     =      60.0000  Ry
     charge density cutoff     =     480.0000  Ry
     scf convergence threshold =      1.0E-06
     mixing beta               =       0.7000
     number of iterations used =            8  plain     mixing
     energy convergence thresh.=      1.0E-04
     force convergence thresh. =      1.0E-03
     press convergence thresh. =      5.0E-01
     Exchange-correlation= SLA  PW   PBX  PBC
                           (   1   4   3   4   0   0   0)
     nstep                     =           50

     celldm(1)=  20.135087  celldm(2)=   0.869801  celldm(3)=   0.977339
     celldm(4)=   0.000000  celldm(5)=  -0.178119  celldm(6)=   0.000000

     crystal axes: (cart. coord. in units of alat)
               a(1) = (   1.000000   0.000000   0.000000 )
               a(2) = (   0.000000   0.869801   0.000000 )
               a(3) = (  -0.174083   0.000000   0.961710 )

     reciprocal axes: (cart. coord. in units 2 pi/alat)
               b(1) = (  1.000000 -0.000000  0.181014 )
               b(2) = (  0.000000  1.149688 -0.000000 )
               b(3) = (  0.000000  0.000000  1.039814 )

     PseudoPot. # 1 for Al read from file:
     ./../../../pseudos/Al.pbe-n-kjpaw_psl.1.0.0.UPF
     MD5 check sum: 502b6b27b9c6270cab5dd1084b96fa6d
     Pseudo is Projector augmented-wave + core cor, Zval =  3.0
     Generated using &quot;atomic&quot; code by A. Dal Corso  v.6.3
     Shape of augmentation charge: PSQ
     Using radial grid of 1135 points,  6 beta functions with:
                l(1) =   0
                l(2) =   0
                l(3) =   1
                l(4) =   1
                l(5) =   2
                l(6) =   2
     Q(r) pseudized with 0 coefficients

     PseudoPot. # 2 for Fe read from file:
     ./../../../pseudos/Fe.pbe-spn-kjpaw_psl.1.0.0.UPF
     MD5 check sum: fc81f059e5c5069939230b1155715ae8
     Pseudo is Projector augmented-wave + core cor, Zval = 16.0
     Generated using &quot;atomic&quot; code by A. Dal Corso  v.6.3
     Shape of augmentation charge: PSQ
     Using radial grid of 1191 points,  6 beta functions with:
                l(1) =   0
                l(2) =   0
                l(3) =   1
                l(4) =   1
                l(5) =   2
                l(6) =   2
     Q(r) pseudized with 0 coefficients

[...]

     PseudoPot. # 4 for H  read from file:
     ./../../../pseudos/H.pbe-kjpaw_psl.1.0.0.UPF
     MD5 check sum: d81a744832360e4a8af0b0b5b123bc2a
     Pseudo is Projector augmented-wave, Zval =  1.0
     Generated using &quot;atomic&quot; code by A. Dal Corso  v.6.3MaX
     Shape of augmentation charge: PSQ
     Using radial grid of  929 points,  2 beta functions with:
                l(1) =   0
                l(2) =   0
     Q(r) pseudized with 0 coefficients

     PseudoPot. # 5 for K  read from file:
     ./../../../pseudos/K.pbe-spn-kjpaw_psl.1.0.0.UPF
     MD5 check sum: 34cc42130a09071ebe376fd42eb21491
     Pseudo is Projector augmented-wave + core cor, Zval =  9.0
     Generated using &quot;atomic&quot; code by A. Dal Corso  v.6.2.2
     Shape of augmentation charge: PSQ
     Using radial grid of 1165 points,  6 beta functions with:
                l(1) =   0
                l(2) =   0
                l(3) =   1
                l(4) =   1
                l(5) =   2
                l(6) =   2
     Q(r) pseudized with 0 coefficients

     PseudoPot. # 6 for Mg read from file:
     ./../../../pseudos/Mg.pbe-spnl-kjpaw_psl.1.0.0.UPF
     MD5 check sum: fda14e0d92a6a9a5ebed782e5a4b3067
     Pseudo is Projector augmented-wave + core cor, Zval = 10.0
     Generated using &quot;atomic&quot; code by A. Dal Corso  v.6.3
     Shape of augmentation charge: PSQ
     Using radial grid of 1129 points,  4 beta functions with:
                l(1) =   0
                l(2) =   0
                l(3) =   1
                l(4) =   1
     Q(r) pseudized with 0 coefficients

     PseudoPot. # 7 for O  read from file:
     ./../../../pseudos/O.pbe-n-kjpaw_psl.1.0.0.UPF
     MD5 check sum: e99d9cef9b487d1ca56f5b95ecd0fd7a
     Pseudo is Projector augmented-wave + core cor, Zval =  6.0
     Generated using &quot;atomic&quot; code by A. Dal Corso  v.6.3
     Shape of augmentation charge: PSQ
     Using radial grid of 1095 points,  4 beta functions with:
                l(1) =   0
                l(2) =   0
                l(3) =   1
                l(4) =   1
     Q(r) pseudized with 0 coefficients

     PseudoPot. # 8 for Si read from file:
     ./../../../pseudos/Si.pbe-n-kjpaw_psl.1.0.0.UPF
     MD5 check sum: c39c59da582df4a0d9f10159256ea34e
     Pseudo is Projector augmented-wave + core cor, Zval =  4.0
     Generated using &quot;atomic&quot; code by A. Dal Corso  v.6.3
     Shape of augmentation charge: PSQ
     Using radial grid of 1141 points,  6 beta functions with:
                l(1) =   0
                l(2) =   0
                l(3) =   1
                l(4) =   1
                l(5) =   2
                l(6) =   2
     Q(r) pseudized with 0 coefficients

     atomic species   valence    mass     pseudopotential
     Al                3.00    26.98154     Al( 1.00)
     Fe1              16.00    55.84500     Fe( 1.00)
     Fe2              16.00    55.84500     Fe( 1.00)
     H                 1.00     1.00794     H ( 1.00)
     K                 9.00    39.09830     K ( 1.00)
     Mg               10.00    24.30500     Mg( 1.00)
     O                 6.00    15.99940     O ( 1.00)
     Si                4.00    28.08550     Si( 1.00)

     Starting magnetic structure
     atomic species   magnetization
     Al              0.000
     Fe1             0.300
     Fe2            -0.300
     H               0.000
     K               0.000
     Mg              0.000
     O               0.000
     Si              0.000

      2 Sym. Ops. (no inversion) found

                                    s                        frac. trans.

      isym =  1     identity

 cryst.   s( 1) = (     1          0          0      )
                  (     0          1          0      )
                  (     0          0          1      )

 cart.    s( 1) = (  1.0000000  0.0000000  0.0000000 )
                  (  0.0000000  1.0000000  0.0000000 )
                  (  0.0000000  0.0000000  1.0000000 )

      isym =  2     180 deg rotation - cart. axis [0,1,0]

[...]

     point group C_2  (2)
     there are  2 classes
     the character table:

       E     C2
A      1.00  1.00
B      1.00 -1.00

     the symmetry operations in each class and the name of the first element:

     E        1
          identity
     C2       2
          180 deg rotation - cart. axis [0,1,0]

   Cartesian axes

     site n.     atom                  positions (alat units)
         1        K      tau(   1) = (   0.0000000   0.4296389   0.0000000  )
         2        K      tau(   2) = (   0.5000000   0.4296389   0.0000000  )
         3        K      tau(   3) = (   0.2500001   0.0024501   0.0000000  )
         4        K      tau(   4) = (   0.7500001   0.0024501   0.0000000  )
         5        Mg     tau(   5) = (  -0.0870414   0.0055279   0.4808550  )
         6        Mg     tau(   6) = (   0.4129586   0.0055279   0.4808550  )
         7        Mg     tau(   7) = (  -0.0870414   0.5801280   0.4808550  )
         8        Mg     tau(   8) = (   0.4129586   0.5801280   0.4808550  )
         9        Mg     tau(   9) = (   0.1629587   0.4310949   0.4808550  )
        10        Mg     tau(  10) = (   0.6629587   0.4310949   0.4808550  )
        11        Mg     tau(  11) = (   0.1629587   0.7269300   0.4808550  )
        12        Mg     tau(  12) = (   0.6629587   0.7269300   0.4808550  )
        13        Mg     tau(  13) = (   0.1629587   0.1482588   0.4808550  )
        14        Mg     tau(  14) = (   0.6629587   0.1482588   0.4808550  )
        15        Si     tau(  15) = (   0.0074326   0.1420119   0.2164892  )
        16        Si     tau(  16) = (   0.5074326   0.1420119   0.2164892  )
        17        Si     tau(  17) = (   0.3184849   0.1420119   0.7452208  )
        18        Si     tau(  18) = (   0.8184849   0.1420119   0.7452208  )
        19        Si     tau(  19) = (   0.3331608   0.7257911   0.7377580  )
        20        Si     tau(  20) = (   0.8331608   0.7257911   0.7377580  )
        21        Si     tau(  21) = (  -0.0072433   0.7257911   0.2239520  )
        22        Si     tau(  22) = (   0.4927567   0.7257911   0.2239520  )
        23        Si     tau(  23) = (   0.2427667   0.5796705   0.2225784  )
        24        Si     tau(  24) = (   0.7427667   0.5796705   0.2225784  )
        25        Si     tau(  25) = (   0.0831508   0.5796705   0.7391315  )
        26        Si     tau(  26) = (   0.5831508   0.5796705   0.7391315  )
        27        Al     tau(  27) = (   0.0682443   0.2875617   0.7425041  )
        28        Al     tau(  28) = (   0.5682443   0.2875617   0.7425041  )
        29        Al     tau(  29) = (   0.2576732   0.2875617   0.2192058  )
        30        Al     tau(  30) = (   0.7576731   0.2875617   0.2192058  )
        31        O      tau(  31) = (   0.0017352   0.1371008   0.3693886  )
        32        O      tau(  32) = (   0.5017352   0.1371008   0.3693886  )
        33        O      tau(  33) = (   0.3241823   0.1371008   0.5923214  )
        34        O      tau(  34) = (   0.8241823   0.1371008   0.5923214  )
        35        O      tau(  35) = (   0.3309875   0.7260882   0.5856762  )
        36        O      tau(  36) = (   0.8309875   0.7260882   0.5856762  )
        37        O      tau(  37) = (  -0.0050700   0.7260882   0.3760337  )
        38        O      tau(  38) = (   0.4949300   0.7260882   0.3760337  )
[...]
     atom   49 type  7   force =     0.00000000    0.00000000    0.00000000
     atom   50 type  7   force =     0.00000000    0.00000000    0.00000000
     atom   51 type  7   force =     0.00000000    0.00000000    0.00000000
     atom   52 type  7   force =     0.00000000    0.00000000    0.00000000
     atom   53 type  7   force =     0.00000000    0.00000000    0.00000000
     atom   54 type  7   force =     0.00000000    0.00000000    0.00000000
     atom   55 type  7   force =     0.00000000    0.00000000    0.00000000
     atom   56 type  7   force =     0.00000000    0.00000000    0.00000000
     atom   57 type  7   force =     0.00000000    0.00000000    0.00000000
     atom   58 type  7   force =     0.00000000    0.00000000    0.00000000
     atom   59 type  7   force =     0.00000000    0.00000000    0.00000000
     atom   60 type  7   force =     0.00000000    0.00000000    0.00000000
[...]
     atom   74 type  7   force =     0.00000000    0.00000000    0.00000000
     atom   75 type  7   force =     0.00000000    0.00000000    0.00000000
     atom   76 type  7   force =     0.00000000    0.00000000    0.00000000
     atom   77 type  7   force =     0.00000000    0.00000000    0.00000000
     atom   78 type  7   force =     0.00000000    0.00000000    0.00000000
     atom   79 type  4   force =     0.00000000    0.00000000    0.00000000
     atom   80 type  4   force =     0.00000000    0.00000000    0.00000000
     atom   81 type  4   force =     0.00000000    0.00000000    0.00000000
     atom   82 type  4   force =     0.00000000    0.00000000    0.00000000
     atom   83 type  4   force =     0.00000000    0.00000000    0.00000000
     atom   84 type  4   force =     0.00000000    0.00000000    0.00000000
     atom   85 type  4   force =     0.00000000    0.00000000    0.00000000
     atom   86 type  4   force =     0.00000000    0.00000000    0.00000000
     atom   87 type  2   force =     0.00000000    0.00000000    0.00000000
     atom   88 type  3   force =     0.00000000    0.00000000    0.00000000
     The SCF correction term to forces
     atom    1 type  5   force =     0.00000000   -0.00000968   -0.00000000
     atom    2 type  5   force =     0.00000000   -0.00000447   -0.00000000
     atom    3 type  5   force =    -0.00000025    0.00000553    0.00000122
     atom    4 type  5   force =     0.00000025    0.00000553   -0.00000122
     atom    5 type  6   force =    -0.00000000   -0.00001097    0.00000000
     atom    6 type  6   force =     0.00000000   -0.00000821    0.00000000
     atom    7 type  6   force =    -0.00000000   -0.00000165    0.00000000
     atom    8 type  6   force =     0.00000000    0.00001373    0.00000000
     atom    9 type  6   force =    -0.00000573    0.00000053   -0.00000370
     atom   10 type  6   force =     0.00000573    0.00000053    0.00000370
     atom   11 type  6   force =     0.00000640   -0.00000109    0.00000216
     atom   12 type  6   force =    -0.00000640   -0.00000109   -0.00000216
     atom   13 type  6   force =     0.00000703   -0.00000059    0.00000232
     atom   14 type  6   force =    -0.00000703   -0.00000059   -0.00000232
     atom   15 type  8   force =     0.00000242    0.00000030   -0.00000775
     atom   16 type  8   force =     0.00000060    0.00000375   -0.00000085
     atom   17 type  8   force =    -0.00000060    0.00000375    0.00000085
     atom   18 type  8   force =    -0.00000242    0.00000030    0.00000775
     atom   19 type  8   force =     0.00000116   -0.00000303   -0.00000247
     atom   20 type  8   force =    -0.00000032    0.00000141    0.00000086
     atom   21 type  8   force =     0.00000032    0.00000141   -0.00000086
     atom   22 type  8   force =    -0.00000116   -0.00000303    0.00000247
     atom   23 type  8   force =     0.00000272   -0.00000153   -0.00000013
     atom   24 type  8   force =    -0.00000222   -0.00000145   -0.00000102
     atom   25 type  8   force =     0.00000222   -0.00000145    0.00000102
     atom   26 type  8   force =    -0.00000272   -0.00000153    0.00000013
     atom   27 type  1   force =     0.00000226    0.00000031    0.00000347
     atom   28 type  1   force =     0.00000038    0.00000007    0.00000089
     atom   29 type  1   force =    -0.00000038    0.00000007   -0.00000089
     atom   30 type  1   force =    -0.00000226    0.00000031   -0.00000347
     atom   31 type  7   force =     0.00000805   -0.00000569   -0.00000352
     atom   32 type  7   force =     0.00000334   -0.00000190   -0.00000449
     atom   33 type  7   force =    -0.00000334   -0.00000190    0.00000449
     atom   34 type  7   force =    -0.00000805   -0.00000569    0.00000352
     atom   35 type  7   force =    -0.00000167    0.00000020    0.00000213
     atom   36 type  7   force =    -0.00000271   -0.00000136   -0.00000222
     atom   37 type  7   force =     0.00000271   -0.00000136    0.00000222
     atom   38 type  7   force =     0.00000167    0.00000020   -0.00000213
     atom   39 type  7   force =    -0.00000220    0.00000319   -0.00000095
     atom   40 type  7   force =    -0.00000395    0.00000226   -0.00000212
     atom   41 type  7   force =     0.00000395    0.00000226    0.00000212
     atom   42 type  7   force =     0.00000220    0.00000319    0.00000095
     atom   43 type  7   force =     0.00002000    0.00000099    0.00000171
     atom   44 type  7   force =     0.00001602   -0.00000194    0.00001421
     atom   45 type  7   force =    -0.00001602   -0.00000194   -0.00001421
     atom   46 type  7   force =    -0.00002000    0.00000099   -0.00000171
     atom   47 type  7   force =     0.00000384    0.00000288   -0.00000299
     atom   48 type  7   force =    -0.00000315    0.00000266   -0.00000382
     atom   49 type  7   force =     0.00000315    0.00000266    0.00000382
     atom   50 type  7   force =    -0.00000384    0.00000288    0.00000299
     atom   51 type  7   force =     0.00000162    0.00000286   -0.00000415
     atom   52 type  7   force =     0.00000003   -0.00000214   -0.00000359
     atom   53 type  7   force =    -0.00000003   -0.00000214    0.00000359
     atom   54 type  7   force =    -0.00000162    0.00000286    0.00000415
     atom   55 type  7   force =     0.00000049   -0.00000223    0.00000049
     atom   56 type  7   force =    -0.00000190    0.00000131    0.00000156
     atom   57 type  7   force =     0.00000190    0.00000131   -0.00000156
     atom   58 type  7   force =    -0.00000049   -0.00000223   -0.00000049
     atom   59 type  7   force =     0.00000147   -0.00000149   -0.00000246
     atom   60 type  7   force =    -0.00000298    0.00000005   -0.00000247
[...]
     atom   74 type  7   force =    -0.00001072    0.00000785   -0.00000313
     atom   75 type  7   force =    -0.00000018   -0.00000207   -0.00000131
     atom   76 type  7   force =    -0.00000472   -0.00000137   -0.00000458
     atom   77 type  7   force =     0.00000472   -0.00000137    0.00000458
     atom   78 type  7   force =     0.00000018   -0.00000207    0.00000131
     atom   79 type  4   force =     0.00000105    0.00000046    0.00000010
     atom   80 type  4   force =     0.00000031    0.00000008   -0.00000167
     atom   81 type  4   force =    -0.00000031    0.00000008    0.00000167
     atom   82 type  4   force =    -0.00000105    0.00000046   -0.00000010
     atom   83 type  4   force =     0.00000003    0.00000003    0.00000046
     atom   84 type  4   force =    -0.00000057   -0.00000013   -0.00000055
     atom   85 type  4   force =     0.00000057   -0.00000013    0.00000055
     atom   86 type  4   force =    -0.00000003    0.00000003   -0.00000046
     atom   87 type  2   force =     0.00000000    0.00001746   -0.00000000
     atom   88 type  3   force =     0.00000000   -0.00002214   -0.00000000

     DFT-D3 dispersion contribution to forces:
     atom    1 type  5   force =     0.00000001    0.00103673   -0.00000000
     atom    2 type  5   force =     0.00000001    0.00103673   -0.00000000
     atom    3 type  5   force =    -0.00000003   -0.00055545   -0.00000002
     atom    4 type  5   force =     0.00000003   -0.00055545    0.00000003
     atom    5 type  6   force =    -0.00000001    0.00045198    0.00000000
     atom    6 type  6   force =    -0.00000000    0.00045188    0.00000000
     atom    7 type  6   force =    -0.00000001   -0.00134875   -0.00000000
     atom    8 type  6   force =    -0.00000001   -0.00134875   -0.00000000
     atom    9 type  6   force =    -0.00000001   -0.00049507    0.00000002
     atom   10 type  6   force =     0.00000002   -0.00049507   -0.00000002
     atom   11 type  6   force =    -0.00000006    0.00117954   -0.00000002
     atom   12 type  6   force =     0.00000007    0.00117954    0.00000001
     atom   13 type  6   force =    -0.00000013   -0.00032558   -0.00000002
     atom   14 type  6   force =     0.00000014   -0.00032558    0.00000002
     atom   15 type  8   force =    -0.00001244   -0.00006077   -0.00012154
     atom   16 type  8   force =    -0.00001242   -0.00006077   -0.00012157
     atom   17 type  8   force =     0.00001242   -0.00006077    0.00012157
     atom   18 type  8   force =     0.00001245   -0.00006077    0.00012154
     atom   19 type  8   force =     0.00004149    0.00001534    0.00024568
     atom   20 type  8   force =     0.00004149    0.00001535    0.00024562
     atom   21 type  8   force =    -0.00004149    0.00001535   -0.00024562
     atom   22 type  8   force =    -0.00004149    0.00001534   -0.00024568
     atom   23 type  8   force =     0.00002260    0.00026279   -0.00024632
     atom   24 type  8   force =     0.00002264    0.00026280   -0.00024634
     atom   25 type  8   force =    -0.00002263    0.00026280    0.00024634
     atom   26 type  8   force =    -0.00002259    0.00026279    0.00024632
     atom   27 type  1   force =    -0.00013129    0.00003104   -0.00094525
     atom   28 type  1   force =    -0.00013129    0.00003103   -0.00094527
     atom   29 type  1   force =     0.00013129    0.00003103    0.00094527
     atom   30 type  1   force =     0.00013129    0.00003104    0.00094525
     atom   31 type  7   force =    -0.00005131    0.00012429    0.00051103
     atom   32 type  7   force =    -0.00005133    0.00012437    0.00051107
     atom   33 type  7   force =     0.00005134    0.00012437   -0.00051107
     atom   34 type  7   force =     0.00005131    0.00012429   -0.00051103
     atom   35 type  7   force =     0.00000071    0.00000525   -0.00037951
     atom   36 type  7   force =     0.00000069    0.00000523   -0.00037951
     atom   37 type  7   force =    -0.00000069    0.00000523    0.00037951
     atom   38 type  7   force =    -0.00000071    0.00000525    0.00037951
     atom   39 type  7   force =    -0.00001849   -0.00000263    0.00038313
     atom   40 type  7   force =    -0.00001847   -0.00000263    0.00038316
     atom   41 type  7   force =     0.00001847   -0.00000263   -0.00038316
     atom   42 type  7   force =     0.00001849   -0.00000263   -0.00038313
     atom   43 type  7   force =    -0.00008019   -0.00001004    0.00001329
     atom   44 type  7   force =    -0.00008024   -0.00001004    0.00001321
     atom   45 type  7   force =     0.00008024   -0.00001004   -0.00001321
     atom   46 type  7   force =     0.00008019   -0.00001004   -0.00001329
     atom   47 type  7   force =    -0.00019428    0.00107607    0.00023135
     atom   48 type  7   force =    -0.00019425    0.00107607    0.00023139
     atom   49 type  7   force =     0.00019425    0.00107607   -0.00023139
     atom   50 type  7   force =     0.00019428    0.00107607   -0.00023135
     atom   51 type  7   force =     0.00080602    0.00006577    0.00021761
     atom   52 type  7   force =     0.00080601    0.00006576    0.00021763
     atom   53 type  7   force =    -0.00080601    0.00006576   -0.00021763
     atom   54 type  7   force =    -0.00080602    0.00006577   -0.00021761
     atom   55 type  7   force =     0.00033063   -0.00047276   -0.00004343
     atom   56 type  7   force =     0.00033064   -0.00047277   -0.00004344
     atom   57 type  7   force =    -0.00033065   -0.00047277    0.00004344
     atom   58 type  7   force =    -0.00033064   -0.00047277    0.00004343
     atom   59 type  7   force =    -0.00014958    0.00024089    0.00002568
     atom   60 type  7   force =    -0.00014957    0.00024089    0.00002567
[...]
     atom   74 type  7   force =     0.00011295   -0.00017236    0.00035895
     atom   75 type  7   force =     0.00001817   -0.00000487   -0.00051787
     atom   76 type  7   force =     0.00001817   -0.00000486   -0.00051787
     atom   77 type  7   force =    -0.00001817   -0.00000486    0.00051787
     atom   78 type  7   force =    -0.00001817   -0.00000487    0.00051787
     atom   79 type  4   force =    -0.00008249    0.00018003   -0.00009947
     atom   80 type  4   force =    -0.00008243    0.00018002   -0.00009947
     atom   81 type  4   force =     0.00008243    0.00018002    0.00009947
     atom   82 type  4   force =     0.00008249    0.00018003    0.00009947
     atom   83 type  4   force =     0.00012155   -0.00048994   -0.00027356
     atom   84 type  4   force =     0.00012154   -0.00048991   -0.00027357
     atom   85 type  4   force =    -0.00012155   -0.00048992    0.00027357
     atom   86 type  4   force =    -0.00012156   -0.00048994    0.00027356
     atom   87 type  2   force =    -0.00000001    0.00065557   -0.00000000
     atom   88 type  3   force =    -0.00000001    0.00065565   -0.00000000

     Total force =     0.002612     Total SCF correction =     0.000075

     DFT-D3 dispersion Force =     0.006281

     Computing stress (Cartesian axis) and pressure

     negative rho (up, down):  3.804E-04 3.803E-04
          total   stress  (Ry/bohr**3)                   (kbar)     P=        0.24
   0.00000286   0.00000000  -0.00000014            0.42        0.00       -0.02
   0.00000000   0.00000188   0.00000000            0.00        0.28        0.00
  -0.00000014   0.00000000   0.00000008           -0.02        0.00        0.01

     kinetic stress (kbar)  20091.65      0.00    -54.81
                                0.00  20179.62      0.00
                              -54.81      0.00  19874.23

     local   stress (kbar) -40681.61      0.00   -299.47
                                0.00 -39882.94     -0.00
                             -299.47     -0.00  19232.70

     nonloc. stress (kbar)   3809.59      0.00      7.05
                                0.00   3798.82      0.00
                                7.05      0.00   3787.24

     hartree stress (kbar)  22894.18     -0.00    110.29
                               -0.00  22570.62     -0.00
                              110.29     -0.00  -6368.37

     exc-cor stress (kbar)  -2824.36      0.00     -0.04
                                0.00  -2824.23      0.00
                               -0.04      0.00  -2821.22

     corecor stress (kbar)  -1859.84     -0.00      0.49
                               -0.00  -1860.57     -0.00
                                0.49     -0.00  -1861.81

     ewald   stress (kbar)  -1414.52     -0.00    236.48
                               -0.00  -1966.30      0.00
                              236.48      0.00 -31831.77

     hubbard stress (kbar)      0.00      0.00      0.00
                                0.00      0.00      0.00
                                0.00      0.00      0.00

     DFT-D   stress (kbar)    -14.67      0.00     -0.03
                                0.00    -14.73      0.00
                               -0.03      0.00    -10.99

     XDM     stress (kbar)      0.00      0.00      0.00
                                0.00      0.00      0.00
                                0.00      0.00      0.00

     dft-nl  stress (kbar)      0.00      0.00      0.00
                                0.00      0.00      0.00
                                0.00      0.00      0.00

     TS-vdW  stress (kbar)      0.00      0.00      0.00
                                0.00      0.00      0.00
                                0.00      0.00      0.00

     MDB     stress (kbar)      0.00      0.00      0.00
                                0.00      0.00      0.00
                                0.00      0.00      0.00

     3D-RISM stress (kbar)      0.00      0.00      0.00
                                0.00      0.00      0.00
                                0.00      0.00      0.00

     Writing all to output data dir ./temp/phl-fe1-fe2x2.save/ :
     XML data file, charge density, pseudopotentials, collected wavefunctions

     General routines

     Parallel routines

     PAW routines

   This run was terminated on:  15:18: 4  31Jan2025

   JOB DONE.