     Program PWSCF v.7.3.1 starts on 18Dec2024 at 15:18: 1

     Reading input from vc_relax.in

     Current dimensions of program PWSCF are:
     Max number of different atomic species (ntypx) = 10
     Max number of k-points (npk) =  40000
     Max angular momentum in pseudopotentials (lmaxx) =  4
     file Al.pbe-n-kjpaw_psl.1.0.0.UPF: wavefunction(s)  3S 3P renormalized
     file Fe.pbe-spn-kjpaw_psl.1.0.0.UPF: wavefunction(s)  3P 3D renormalized
     file H.pbe-kjpaw_psl.1.0.0.UPF: wavefunction(s)  1S renormalized
     file K.pbe-spn-kjpaw_psl.1.0.0.UPF: wavefunction(s)  3S renormalized
     file Mg.pbe-spnl-kjpaw_psl.1.0.0.UPF: wavefunction(s)  2P renormalized
     file O.pbe-n-kjpaw_psl.1.0.0.UPF: wavefunction(s)  2S 2P renormalized
     file Si.pbe-n-kjpaw_psl.1.0.0.UPF: wavefunction(s)  3S 3P renormalized

     R & G space division:  proc/nbgrp/npool/nimage =      12
     Subspace diagonalization in iterative solution of the eigenvalue problem:
     one sub-group per band group will be used

     Using Slab Decomposition

     bravais-lattice index     =          -12
     lattice parameter (alat)  =       9.9883  a.u.
     unit-cell volume          =    3285.8057 (a.u.)^3
     number of atoms/cell      =           44
     number of atomic types    =            7
     number of electrons       =       262.00
     number of Kohn-Sham states=          157
     kinetic-energy cutoff     =      60.0000  Ry
     charge density cutoff     =     480.0000  Ry
     scf convergence threshold =      1.0E-06
     mixing beta               =       0.7000
     number of iterations used =            8  plain     mixing
     energy convergence thresh.=      1.0E-04
     force convergence thresh. =      1.0E-03
     press convergence thresh. =      5.0E-01
     Exchange-correlation= SLA  PW   PBX  PBC
                           (   1   4   3   4   0   0   0)
     nstep                     =           50

     celldm(1)=   9.988336  celldm(2)=   1.736567  celldm(3)=   1.928182
     celldm(4)=   0.000000  celldm(5)=  -0.174018  celldm(6)=   0.000000

     crystal axes: (cart. coord. in units of alat)
               a(1) = (   1.000000   0.000000   0.000000 )
               a(2) = (   0.000000   1.736567   0.000000 )
               a(3) = (  -0.335538   0.000000   1.898763 )

     reciprocal axes: (cart. coord. in units 2 pi/alat)
               b(1) = (  1.000000 -0.000000  0.176714 )
               b(2) = (  0.000000  0.575849 -0.000000 )
               b(3) = (  0.000000  0.000000  0.526659 )

     PseudoPot. # 1 for Al read from file:
     ./../../pseudos/Al.pbe-n-kjpaw_psl.1.0.0.UPF
     MD5 check sum: 502b6b27b9c6270cab5dd1084b96fa6d
     Pseudo is Projector augmented-wave + core cor, Zval =  3.0
     Generated using &quot;atomic&quot; code by A. Dal Corso  v.6.3
     Shape of augmentation charge: PSQ
     Using radial grid of 1135 points,  6 beta functions with:
                l(1) =   0
                l(2) =   0
                l(3) =   1
                l(4) =   1
                l(5) =   2
                l(6) =   2
     Q(r) pseudized with 0 coefficients

     PseudoPot. # 2 for Fe read from file:
     ./../../pseudos/Fe.pbe-spn-kjpaw_psl.1.0.0.UPF
     MD5 check sum: fc81f059e5c5069939230b1155715ae8
     Pseudo is Projector augmented-wave + core cor, Zval = 16.0
     Generated using &quot;atomic&quot; code by A. Dal Corso  v.6.3
     Shape of augmentation charge: PSQ
     Using radial grid of 1191 points,  6 beta functions with:
                l(1) =   0
                l(2) =   0
                l(3) =   1
                l(4) =   1
                l(5) =   2
                l(6) =   2
     Q(r) pseudized with 0 coefficients

     PseudoPot. # 3 for H  read from file:
     ./../../pseudos/H.pbe-kjpaw_psl.1.0.0.UPF
     MD5 check sum: d81a744832360e4a8af0b0b5b123bc2a
     Pseudo is Projector augmented-wave, Zval =  1.0
     Generated using &quot;atomic&quot; code by A. Dal Corso  v.6.3MaX
     Shape of augmentation charge: PSQ
     Using radial grid of  929 points,  2 beta functions with:
                l(1) =   0
                l(2) =   0
     Q(r) pseudized with 0 coefficients

     PseudoPot. # 4 for K  read from file:
     ./../../pseudos/K.pbe-spn-kjpaw_psl.1.0.0.UPF
     MD5 check sum: 34cc42130a09071ebe376fd42eb21491
     Pseudo is Projector augmented-wave + core cor, Zval =  9.0
     Generated using &quot;atomic&quot; code by A. Dal Corso  v.6.2.2
     Shape of augmentation charge: PSQ
     Using radial grid of 1165 points,  6 beta functions with:
                l(1) =   0
                l(2) =   0
                l(3) =   1
                l(4) =   1
                l(5) =   2
                l(6) =   2
     Q(r) pseudized with 0 coefficients

     PseudoPot. # 5 for Mg read from file:
     ./../../pseudos/Mg.pbe-spnl-kjpaw_psl.1.0.0.UPF
     MD5 check sum: fda14e0d92a6a9a5ebed782e5a4b3067
     Pseudo is Projector augmented-wave + core cor, Zval = 10.0
     Generated using &quot;atomic&quot; code by A. Dal Corso  v.6.3
     Shape of augmentation charge: PSQ
     Using radial grid of 1129 points,  4 beta functions with:
                l(1) =   0
                l(2) =   0
                l(3) =   1
                l(4) =   1
     Q(r) pseudized with 0 coefficients

     PseudoPot. # 6 for O  read from file:
     ./../../pseudos/O.pbe-n-kjpaw_psl.1.0.0.UPF
     MD5 check sum: e99d9cef9b487d1ca56f5b95ecd0fd7a
     Pseudo is Projector augmented-wave + core cor, Zval =  6.0
     Generated using &quot;atomic&quot; code by A. Dal Corso  v.6.3
     Shape of augmentation charge: PSQ
     Using radial grid of 1095 points,  4 beta functions with:
                l(1) =   0
                l(2) =   0
                l(3) =   1
                l(4) =   1
     Q(r) pseudized with 0 coefficients

     PseudoPot. # 7 for Si read from file:
     ./../../pseudos/Si.pbe-n-kjpaw_psl.1.0.0.UPF
     MD5 check sum: c39c59da582df4a0d9f10159256ea34e
     Pseudo is Projector augmented-wave + core cor, Zval =  4.0
     Generated using &quot;atomic&quot; code by A. Dal Corso  v.6.3
     Shape of augmentation charge: PSQ
     Using radial grid of 1141 points,  6 beta functions with:
                l(1) =   0
                l(2) =   0
                l(3) =   1
                l(4) =   1
                l(5) =   2
                l(6) =   2
     Q(r) pseudized with 0 coefficients

     atomic species   valence    mass     pseudopotential
     Al                3.00    26.98154     Al( 1.00)
     Fe               16.00    55.84500     Fe( 1.00)
     H                 1.00     1.00794     H ( 1.00)
     K                 9.00    39.09830     K ( 1.00)
     Mg               10.00    24.30500     Mg( 1.00)
     O                 6.00    15.99940     O ( 1.00)
     Si                4.00    28.08550     Si( 1.00)

     Starting magnetic structure
     atomic species   magnetization
     Al              0.000
     Fe              0.300
     H               0.000
     K               0.000
     Mg              0.000
     O               0.000
     Si              0.000

      2 Sym. Ops. (no inversion) found

                                    s                        frac. trans.

      isym =  1     identity

 cryst.   s( 1) = (     1          0          0      )
                  (     0          1          0      )
                  (     0          0          1      )

 cart.    s( 1) = (  1.0000000  0.0000000  0.0000000 )
                  (  0.0000000  1.0000000  0.0000000 )
                  (  0.0000000  0.0000000  1.0000000 )

      isym =  2     180 deg rotation - cart. axis [0,1,0]

[...]

     point group C_2  (2)
     there are  2 classes
     the character table:

       E     C2
A      1.00  1.00
B      1.00 -1.00

     the symmetry operations in each class and the name of the first element:

     E        1
          identity
     C2       2
          180 deg rotation - cart. axis [0,1,0]

   Cartesian axes

     site n.     atom                  positions (alat units)
         1        K      tau(   1) = (   0.0000000   0.8646693   0.0000000  )
         2        K      tau(   2) = (   0.5000000   0.0015640   0.0000000  )
         3        Mg     tau(   3) = (  -0.1677688   0.0058617   0.9493815  )
         4        Mg     tau(   4) = (  -0.1677688   0.5754339   0.9493815  )
         5        Mg     tau(   5) = (  -0.1677688   1.1563460   0.9493815  )
         6        Mg     tau(   6) = (   0.3322312   1.4513759   0.9493815  )
         7        Mg     tau(   7) = (   0.3322312   0.2920804   0.9493815  )
         8        Fe     tau(   8) = (   0.3322312   0.8552530   0.9493815  )
         9        Si     tau(   9) = (   0.0092378   0.2864513   0.4210148  )
        10        Si     tau(  10) = (   0.6552246   0.2864513   1.4777482  )
        11        Si     tau(  11) = (   0.6741097   1.4491888   1.4666057  )
        12        Si     tau(  12) = (  -0.0096473   1.4491888   0.4321574  )
        13        Si     tau(  13) = (   0.4902093   1.1595200   0.4289633  )
        14        Si     tau(  14) = (   0.1742531   1.1595200   1.4697999  )
        15        Al     tau(  15) = (   0.1543345   0.5747204   1.4740001  )
        16        Al     tau(  16) = (   0.5101278   0.5747204   0.4247630  )
        17        O      tau(  17) = (  -0.0012592   0.2818481   0.7295089  )
        18        O      tau(  18) = (   0.6657216   0.2818481   1.1692542  )
        19        O      tau(  19) = (   0.6685961   1.4471586   1.1606636  )
        20        O      tau(  20) = (  -0.0041337   1.4471586   0.7380994  )
        21        O      tau(  21) = (   0.4987436   1.1712706   0.7358849  )
        22        O      tau(  22) = (   0.1657189   1.1712706   1.1628781  )
        23        O      tau(  23) = (   0.1567635   0.5694478   1.1461466  )
        24        O      tau(  24) = (   0.5076990   0.5694478   0.7526164  )
        25        O      tau(  25) = (   0.2902540   0.3495747   0.3129592  )
        26        O      tau(  26) = (   0.3742085   0.3495747   1.5858038  )
        27        O      tau(  27) = (   0.9372223   1.7319282   0.3154897  )
        28        O      tau(  28) = (  -0.2727599   1.7319282   1.5832733  )
        29        O      tau(  29) = (   0.4000729   1.3503650   1.5810637  )
        30        O      tau(  30) = (   0.2643895   1.3503650   0.3176993  )
        31        O      tau(  31) = (   0.7640372   1.2675250   0.3146147  )
        32        O      tau(  32) = (  -0.0995748   1.2675250   1.5841484  )
        33        O      tau(  33) = (   0.4387614   0.8823365   0.3103250  )
        34        O      tau(  34) = (   0.2257009   0.8823365   1.5884380  )
        35        O      tau(  35) = (  -0.1417505   0.4835473   1.5977894  )
        36        O      tau(  36) = (   0.8062129   0.4835473   0.3009737  )
        37        O      tau(  37) = (  -0.0121541   0.8741612   0.7428984  )
        38        O      tau(  38) = (   0.6766165   0.8741612   1.1558646  )
        39        O      tau(  39) = (   0.5005262   1.7348389   0.7531903  )
        40        O      tau(  40) = (   0.1639362   1.7348389   1.1455728  )
[...]
     The core correction contribution to forces
     atom    1 type  4   force =     0.00000000   -0.00131769    0.00000000
     atom    2 type  4   force =    -0.00000000    0.00145124    0.00000000
     atom    3 type  5   force =    -0.00000000    0.00022694    0.00000000
     atom    4 type  5   force =     0.00000000    0.00022498    0.00000000
     atom    5 type  5   force =     0.00000000   -0.00033361    0.00000000
     atom    6 type  5   force =    -0.00000000    0.00022674    0.00000000
     atom    7 type  5   force =     0.00000000    0.00031673    0.00000000
     atom    8 type  2   force =    -0.00000000   -0.00827531   -0.00000000
     atom    9 type  7   force =     0.00248586    0.01062924    0.00648837
     atom   10 type  7   force =    -0.00248587    0.01062923   -0.00648841
     atom   11 type  7   force =     0.00040256    0.00355585   -0.01374437
     atom   12 type  7   force =    -0.00040258    0.00355584    0.01374441
     atom   13 type  7   force =    -0.00142395   -0.01078139    0.01128779
     atom   14 type  7   force =     0.00142393   -0.01078141   -0.01128762
     atom   15 type  1   force =    -0.00092229   -0.00338504   -0.00982182
     atom   16 type  1   force =     0.00092224   -0.00338505    0.00982179
     atom   17 type  6   force =    -0.00015433    0.00020710    0.00649184
     atom   18 type  6   force =     0.00015432    0.00020710   -0.00649185
     atom   19 type  6   force =    -0.00009921   -0.00000104   -0.00702859
     atom   20 type  6   force =     0.00009920   -0.00000104    0.00702859
     atom   21 type  6   force =     0.00046823    0.00057319    0.00668331
     atom   22 type  6   force =    -0.00046821    0.00057319   -0.00668331
     atom   23 type  6   force =    -0.00051513   -0.00108950   -0.00268205
     atom   24 type  6   force =     0.00051514   -0.00108950    0.00268205
     atom   25 type  6   force =     0.00465945   -0.00187288   -0.00578757
     atom   26 type  6   force =    -0.00465945   -0.00187288    0.00578756
     atom   27 type  6   force =    -0.00367232    0.00083730   -0.00711006
     atom   28 type  6   force =     0.00367232    0.00083730    0.00711006
     atom   29 type  6   force =    -0.00170457    0.00248177    0.00734063
     atom   30 type  6   force =     0.00170457    0.00248177   -0.00734065
     atom   31 type  6   force =     0.00105291   -0.00241350   -0.00756841
     atom   32 type  6   force =    -0.00105291   -0.00241350    0.00756846
     atom   33 type  6   force =    -0.00264410   -0.00351513   -0.00628858
     atom   34 type  6   force =     0.00264409   -0.00351514    0.00628855
     atom   35 type  6   force =     0.00096221    0.00425728    0.00646128
     atom   36 type  6   force =    -0.00096222    0.00425728   -0.00646127
     atom   37 type  6   force =    -0.00213441    0.00067729    0.01101499
     atom   38 type  6   force =     0.00213440    0.00067728   -0.01101497
     atom   39 type  6   force =     0.00017058   -0.00185685    0.01085318
     atom   40 type  6   force =    -0.00017059   -0.00185686   -0.01085320
     atom   41 type  3   force =     0.00000000    0.00000000    0.00000000
     atom   42 type  3   force =     0.00000000    0.00000000    0.00000000
     atom   43 type  3   force =     0.00000000    0.00000000    0.00000000
     atom   44 type  3   force =     0.00000000    0.00000000    0.00000000
     The Hubbard contrib.    to forces
     atom    1 type  4   force =     0.00000000    0.00000000    0.00000000
     atom    2 type  4   force =     0.00000000    0.00000000    0.00000000
     atom    3 type  5   force =     0.00000000    0.00000000    0.00000000
     atom    4 type  5   force =     0.00000000    0.00000000    0.00000000
     atom    5 type  5   force =     0.00000000    0.00000000    0.00000000
     atom    6 type  5   force =     0.00000000    0.00000000    0.00000000
     atom    7 type  5   force =     0.00000000    0.00000000    0.00000000
     atom    8 type  2   force =     0.00000000    0.00000000    0.00000000
     atom    9 type  7   force =     0.00000000    0.00000000    0.00000000
     atom   10 type  7   force =     0.00000000    0.00000000    0.00000000
     atom   11 type  7   force =     0.00000000    0.00000000    0.00000000
     atom   12 type  7   force =     0.00000000    0.00000000    0.00000000
     atom   13 type  7   force =     0.00000000    0.00000000    0.00000000
     atom   14 type  7   force =     0.00000000    0.00000000    0.00000000
     atom   15 type  1   force =     0.00000000    0.00000000    0.00000000
     atom   16 type  1   force =     0.00000000    0.00000000    0.00000000
     atom   17 type  6   force =     0.00000000    0.00000000    0.00000000
     atom   18 type  6   force =     0.00000000    0.00000000    0.00000000
     atom   19 type  6   force =     0.00000000    0.00000000    0.00000000
     atom   20 type  6   force =     0.00000000    0.00000000    0.00000000
     atom   21 type  6   force =     0.00000000    0.00000000    0.00000000
     atom   22 type  6   force =     0.00000000    0.00000000    0.00000000
     atom   23 type  6   force =     0.00000000    0.00000000    0.00000000
     atom   24 type  6   force =     0.00000000    0.00000000    0.00000000
     atom   25 type  6   force =     0.00000000    0.00000000    0.00000000
     atom   26 type  6   force =     0.00000000    0.00000000    0.00000000
     atom   27 type  6   force =     0.00000000    0.00000000    0.00000000
     atom   28 type  6   force =     0.00000000    0.00000000    0.00000000
     atom   29 type  6   force =     0.00000000    0.00000000    0.00000000
     atom   30 type  6   force =     0.00000000    0.00000000    0.00000000
     atom   31 type  6   force =     0.00000000    0.00000000    0.00000000
     atom   32 type  6   force =     0.00000000    0.00000000    0.00000000
     atom   33 type  6   force =     0.00000000    0.00000000    0.00000000
     atom   34 type  6   force =     0.00000000    0.00000000    0.00000000
     atom   35 type  6   force =     0.00000000    0.00000000    0.00000000
     atom   36 type  6   force =     0.00000000    0.00000000    0.00000000
     atom   37 type  6   force =     0.00000000    0.00000000    0.00000000
     atom   38 type  6   force =     0.00000000    0.00000000    0.00000000
     atom   39 type  6   force =     0.00000000    0.00000000    0.00000000
     atom   40 type  6   force =     0.00000000    0.00000000    0.00000000
     atom   41 type  3   force =     0.00000000    0.00000000    0.00000000
     atom   42 type  3   force =     0.00000000    0.00000000    0.00000000
     atom   43 type  3   force =     0.00000000    0.00000000    0.00000000
     atom   44 type  3   force =     0.00000000    0.00000000    0.00000000
     The SCF correction term to forces
     atom    1 type  4   force =    -0.00000000    0.00000606   -0.00000000
     atom    2 type  4   force =     0.00000000   -0.00000620   -0.00000000
     atom    3 type  5   force =     0.00000000   -0.00000237    0.00000000
     atom    4 type  5   force =     0.00000000   -0.00000823    0.00000000
     atom    5 type  5   force =     0.00000000    0.00001087    0.00000000
     atom    6 type  5   force =    -0.00000000    0.00000529    0.00000000
     atom    7 type  5   force =    -0.00000000   -0.00000753   -0.00000000
     atom    8 type  2   force =    -0.00000000   -0.00000539    0.00000000
     atom    9 type  7   force =    -0.00000015   -0.00000474   -0.00000235
     atom   10 type  7   force =     0.00000015   -0.00000474    0.00000235
     atom   11 type  7   force =     0.00000028    0.00000253    0.00000312
     atom   12 type  7   force =    -0.00000028    0.00000253   -0.00000312
     atom   13 type  7   force =     0.00000058    0.00000536   -0.00000166
     atom   14 type  7   force =    -0.00000058    0.00000536    0.00000166
     atom   15 type  1   force =    -0.00000038   -0.00000211   -0.00000039
     atom   16 type  1   force =     0.00000038   -0.00000211    0.00000039
     atom   17 type  6   force =    -0.00000008   -0.00000764   -0.00000412
     atom   18 type  6   force =     0.00000008   -0.00000764    0.00000412
     atom   19 type  6   force =     0.00000067    0.00000393    0.00000648
     atom   20 type  6   force =    -0.00000067    0.00000393   -0.00000648
     atom   21 type  6   force =     0.00000296    0.00001171   -0.00000855
     atom   22 type  6   force =    -0.00000296    0.00001171    0.00000855
     atom   23 type  6   force =    -0.00000327   -0.00001043    0.00000176
     atom   24 type  6   force =     0.00000327   -0.00001043   -0.00000176
     atom   25 type  6   force =    -0.00000401   -0.00000990   -0.00000245
     atom   26 type  6   force =     0.00000401   -0.00000990    0.00000245
     atom   27 type  6   force =     0.00000158   -0.00000506   -0.00000142
     atom   28 type  6   force =    -0.00000158   -0.00000506    0.00000142
     atom   29 type  6   force =     0.00000193    0.00000673    0.00000217
     atom   30 type  6   force =    -0.00000193    0.00000673   -0.00000217
     atom   31 type  6   force =     0.00000157    0.00000814   -0.00000139
     atom   32 type  6   force =    -0.00000157    0.00000814    0.00000139
     atom   33 type  6   force =     0.00000016    0.00000721   -0.00000393
     atom   34 type  6   force =    -0.00000016    0.00000721    0.00000393
     atom   35 type  6   force =    -0.00000387   -0.00000754    0.00000226
     atom   36 type  6   force =     0.00000387   -0.00000754   -0.00000226
     atom   37 type  6   force =    -0.00000582    0.00000335   -0.00000738
     atom   38 type  6   force =     0.00000582    0.00000335    0.00000738
     atom   39 type  6   force =     0.00000015   -0.00000320   -0.00000417
     atom   40 type  6   force =    -0.00000015   -0.00000320    0.00000417
     atom   41 type  3   force =    -0.00000043    0.00000054   -0.00000072
     atom   42 type  3   force =     0.00000043    0.00000054    0.00000072
     atom   43 type  3   force =     0.00000001   -0.00000061   -0.00000072
     atom   44 type  3   force =    -0.00000001   -0.00000061    0.00000072

     Dispersion contribution to forces:
     atom    1 type  4   force =    -0.00000000    0.00239803   -0.00000000
     atom    2 type  4   force =     0.00000000   -0.00189683   -0.00000000
     atom    3 type  5   force =    -0.00000000    0.00051595    0.00000000
     atom    4 type  5   force =    -0.00000000   -0.00226214   -0.00000000
     atom    5 type  5   force =     0.00000000    0.00079550    0.00000000
     atom    6 type  5   force =    -0.00000000    0.00238733    0.00000001
     atom    7 type  5   force =    -0.00000000   -0.00389701   -0.00000000
     atom    8 type  2   force =     0.00000000    0.00309068    0.00000001
     atom    9 type  7   force =    -0.00014911   -0.00044866    0.00146030
     atom   10 type  7   force =     0.00014911   -0.00044866   -0.00146030
     atom   11 type  7   force =    -0.00008652    0.00016350   -0.00089547
     atom   12 type  7   force =     0.00008652    0.00016350    0.00089546
     atom   13 type  7   force =     0.00044407    0.00156832   -0.00044021
     atom   14 type  7   force =    -0.00044407    0.00156832    0.00044020
     atom   15 type  1   force =    -0.00074713   -0.00146205   -0.00143017
     atom   16 type  1   force =     0.00074713   -0.00146205    0.00143017
     atom   17 type  6   force =    -0.00015252    0.00015834    0.00038298
     atom   18 type  6   force =     0.00015252    0.00015834   -0.00038298
     atom   19 type  6   force =     0.00010055   -0.00017604   -0.00026267
     atom   20 type  6   force =    -0.00010055   -0.00017604    0.00026267
     atom   21 type  6   force =    -0.00015428   -0.00014714    0.00060389
     atom   22 type  6   force =     0.00015427   -0.00014714   -0.00060389
     atom   23 type  6   force =    -0.00016619   -0.00008541    0.00092061
     atom   24 type  6   force =     0.00016619   -0.00008541   -0.00092061
     atom   25 type  6   force =     0.00036561    0.00189416    0.00142224
     atom   26 type  6   force =    -0.00036561    0.00189416   -0.00142224
     atom   27 type  6   force =     0.00024264    0.00014329    0.00051279
     atom   28 type  6   force =    -0.00024264    0.00014329   -0.00051279
     atom   29 type  6   force =    -0.00001273    0.00008296    0.00001354
     atom   30 type  6   force =     0.00001273    0.00008296   -0.00001354
     atom   31 type  6   force =     0.00019804   -0.00031667   -0.00031087
     atom   32 type  6   force =    -0.00019803   -0.00031667    0.00031086
     atom   33 type  6   force =     0.00073160   -0.00152622    0.00110110
     atom   34 type  6   force =    -0.00073160   -0.00152622   -0.00110110
     atom   35 type  6   force =     0.00151878   -0.00030107   -0.00117662
     atom   36 type  6   force =    -0.00151878   -0.00030107    0.00117662
     atom   37 type  6   force =     0.00006115    0.00013185   -0.00214762
     atom   38 type  6   force =    -0.00006115    0.00013185    0.00214762
     atom   39 type  6   force =     0.00016142    0.00009654   -0.00243865
     atom   40 type  6   force =    -0.00016142    0.00009654    0.00243864
     atom   41 type  3   force =    -0.00074372   -0.00017921   -0.00013460
     atom   42 type  3   force =     0.00074372   -0.00017921    0.00013460
     atom   43 type  3   force =     0.00036271   -0.00016224    0.00085641
     atom   44 type  3   force =    -0.00036271   -0.00016224   -0.00085641

     Total force =     0.003443     Total SCF correction =     0.000051

     Total Dispersion Force =     0.011098

     Computing stress (Cartesian axis) and pressure

     negative rho (up, down):  0.000E+00 1.989E-04
          total   stress  (Ry/bohr**3)                   (kbar)     P=       -0.33
  -0.00000059   0.00000000   0.00000073           -0.09        0.00        0.11
   0.00000000  -0.00000269   0.00000000            0.00       -0.40        0.00
   0.00000073   0.00000000  -0.00000343            0.11        0.00       -0.50

     kinetic stress (kbar)  20787.56      0.00     18.41
                                0.00  20694.95      0.00
                               18.41      0.00  20530.33

     local   stress (kbar) -38400.74     -0.00    142.11
                               -0.00 -38282.21      0.00
                              142.11      0.00  17180.33

     nonloc. stress (kbar)   3915.63      0.00     -0.04
                                0.00   3918.43      0.00
                               -0.04      0.00   3895.71

     hartree stress (kbar)  21932.85      0.00    -51.87
                                0.00  21873.15      0.00
                              -51.87      0.00  -5244.04

     exc-cor stress (kbar)  -2911.71      0.00     -0.07
                                0.00  -2911.99      0.00
                               -0.07      0.00  -2908.32

     corecor stress (kbar)  -1916.46     -0.00     -0.01
                               -0.00  -1915.95     -0.00
                               -0.01     -0.00  -1918.32

     ewald   stress (kbar)  -3377.24      0.00   -108.27
                                0.00  -3346.94     -0.00
                             -108.27     -0.00 -31506.80

     hubbard stress (kbar)      0.00      0.00      0.00
                                0.00      0.00      0.00
                                0.00      0.00      0.00

     DFT-D   stress (kbar)    -29.96      0.00     -0.16
                                0.00    -29.85     -0.00
                               -0.16     -0.00    -29.39

     XDM     stress (kbar)      0.00      0.00      0.00
                                0.00      0.00      0.00
                                0.00      0.00      0.00

     dft-nl  stress (kbar)      0.00      0.00      0.00
                                0.00      0.00      0.00
                                0.00      0.00      0.00

     TS-vdW  stress (kbar)      0.00      0.00      0.00
                                0.00      0.00      0.00
                                0.00      0.00      0.00

     MDB     stress (kbar)      0.00      0.00      0.00
                                0.00      0.00      0.00
                                0.00      0.00      0.00

     3D-RISM stress (kbar)      0.00      0.00      0.00
                                0.00      0.00      0.00
                                0.00      0.00      0.00

     Writing all to output data dir ./temp/phl-fe1.save/ :
     XML data file, charge density, pseudopotentials, collected wavefunctions

     General routines

     Parallel routines

     PAW routines

   This run was terminated on:   3:20:21  20Dec2024

   JOB DONE.