     Program PWSCF v.7.3.1 starts on 24Mar2025 at  5:44: 3

     Reading input from relax.in

     Current dimensions of program PWSCF are:
     Max number of different atomic species (ntypx) = 10
     Max number of k-points (npk) =  40000
     Max angular momentum in pseudopotentials (lmaxx) =  4
     file Al.pbe-n-kjpaw_psl.1.0.0.UPF: wavefunction(s)  3S 3P renormalized
     file Ti.pbe-spn-kjpaw_psl.1.0.0.UPF: wavefunction(s)  3S 3P 3D renormalized
     file H.pbe-kjpaw_psl.1.0.0.UPF: wavefunction(s)  1S renormalized
     file K.pbe-spn-kjpaw_psl.1.0.0.UPF: wavefunction(s)  3S renormalized
     file Mg.pbe-spnl-kjpaw_psl.1.0.0.UPF: wavefunction(s)  2P renormalized
     file O.pbe-n-kjpaw_psl.1.0.0.UPF: wavefunction(s)  2S 2P renormalized
     file Si.pbe-n-kjpaw_psl.1.0.0.UPF: wavefunction(s)  3S 3P renormalized

     R & G space division:  proc/nbgrp/npool/nimage =       6
     Subspace diagonalization in iterative solution of the eigenvalue problem:
     a serial algorithm will be used

     Using Slab Decomposition

     bravais-lattice index     =          -12
     lattice parameter (alat)  =      10.0639  a.u.
     unit-cell volume          =    3408.7535 (a.u.)^3
     number of atoms/cell      =           43
     number of atomic types    =            7
     number of electrons       =       248.00
     number of Kohn-Sham states=          149
     kinetic-energy cutoff     =      60.0000  Ry
     charge density cutoff     =     480.0000  Ry
     scf convergence threshold =      1.0E-06
     mixing beta               =       0.7000
     number of iterations used =            8  plain     mixing
     energy convergence thresh.=      1.0E-04
     force convergence thresh. =      1.0E-03
     Exchange-correlation= SLA  PW   PBX  PBC
                           (   1   4   3   4   0   0   0)
     nstep                     =           50

     celldm(1)=  10.063938  celldm(2)=   1.736001  celldm(3)=   1.956921
     celldm(4)=   0.000000  celldm(5)=  -0.175986  celldm(6)=   0.000000

     crystal axes: (cart. coord. in units of alat)
               a(1) = (   1.000000   0.000000   0.000000 )
               a(2) = (   0.000000   1.736001   0.000000 )
               a(3) = (  -0.344390   0.000000   1.926379 )

     reciprocal axes: (cart. coord. in units 2 pi/alat)
               b(1) = (  1.000000 -0.000000  0.178776 )
               b(2) = (  0.000000  0.576037 -0.000000 )
               b(3) = (  0.000000  0.000000  0.519109 )

     PseudoPot. # 1 for Al read from file:
     ./../../../pseudos/Al.pbe-n-kjpaw_psl.1.0.0.UPF
     MD5 check sum: 502b6b27b9c6270cab5dd1084b96fa6d
     Pseudo is Projector augmented-wave + core cor, Zval =  3.0
     Generated using &quot;atomic&quot; code by A. Dal Corso  v.6.3
     Shape of augmentation charge: PSQ
     Using radial grid of 1135 points,  6 beta functions with:
                l(1) =   0
                l(2) =   0
                l(3) =   1
                l(4) =   1
                l(5) =   2
                l(6) =   2
     Q(r) pseudized with 0 coefficients

     PseudoPot. # 2 for Ti read from file:
     ./../../../pseudos/Ti.pbe-spn-kjpaw_psl.1.0.0.UPF
     MD5 check sum: 01f69b0d8ba4438b2e03ac6ea4af1c0b
     Pseudo is Projector augmented-wave + core cor, Zval = 12.0
     Generated using &quot;atomic&quot; code by A. Dal Corso  v.6.2.2
     Shape of augmentation charge: PSQ
     Using radial grid of 1177 points,  6 beta functions with:
                l(1) =   0
                l(2) =   0
                l(3) =   1
                l(4) =   1
                l(5) =   2
                l(6) =   2
     Q(r) pseudized with 0 coefficients

     PseudoPot. # 3 for H  read from file:
     ./../../../pseudos/H.pbe-kjpaw_psl.1.0.0.UPF
     MD5 check sum: d81a744832360e4a8af0b0b5b123bc2a
     Pseudo is Projector augmented-wave, Zval =  1.0
     Generated using &quot;atomic&quot; code by A. Dal Corso  v.6.3MaX
     Shape of augmentation charge: PSQ
     Using radial grid of  929 points,  2 beta functions with:
                l(1) =   0
                l(2) =   0
     Q(r) pseudized with 0 coefficients

     PseudoPot. # 4 for K  read from file:
     ./../../../pseudos/K.pbe-spn-kjpaw_psl.1.0.0.UPF
     MD5 check sum: 34cc42130a09071ebe376fd42eb21491
     Pseudo is Projector augmented-wave + core cor, Zval =  9.0
     Generated using &quot;atomic&quot; code by A. Dal Corso  v.6.2.2
     Shape of augmentation charge: PSQ
     Using radial grid of 1165 points,  6 beta functions with:
                l(1) =   0
                l(2) =   0
                l(3) =   1
                l(4) =   1
                l(5) =   2
                l(6) =   2
     Q(r) pseudized with 0 coefficients

     PseudoPot. # 5 for Mg read from file:
     ./../../../pseudos/Mg.pbe-spnl-kjpaw_psl.1.0.0.UPF
     MD5 check sum: fda14e0d92a6a9a5ebed782e5a4b3067
     Pseudo is Projector augmented-wave + core cor, Zval = 10.0
     Generated using &quot;atomic&quot; code by A. Dal Corso  v.6.3
     Shape of augmentation charge: PSQ
     Using radial grid of 1129 points,  4 beta functions with:
                l(1) =   0
                l(2) =   0
                l(3) =   1
                l(4) =   1
     Q(r) pseudized with 0 coefficients

     PseudoPot. # 6 for O  read from file:
     ./../../../pseudos/O.pbe-n-kjpaw_psl.1.0.0.UPF
     MD5 check sum: e99d9cef9b487d1ca56f5b95ecd0fd7a
     Pseudo is Projector augmented-wave + core cor, Zval =  6.0
     Generated using &quot;atomic&quot; code by A. Dal Corso  v.6.3
     Shape of augmentation charge: PSQ
     Using radial grid of 1095 points,  4 beta functions with:
                l(1) =   0
                l(2) =   0
                l(3) =   1
                l(4) =   1
     Q(r) pseudized with 0 coefficients

     PseudoPot. # 7 for Si read from file:
     ./../../../pseudos/Si.pbe-n-kjpaw_psl.1.0.0.UPF
     MD5 check sum: c39c59da582df4a0d9f10159256ea34e
     Pseudo is Projector augmented-wave + core cor, Zval =  4.0
     Generated using &quot;atomic&quot; code by A. Dal Corso  v.6.3
     Shape of augmentation charge: PSQ
     Using radial grid of 1141 points,  6 beta functions with:
                l(1) =   0
                l(2) =   0
                l(3) =   1
                l(4) =   1
                l(5) =   2
                l(6) =   2
     Q(r) pseudized with 0 coefficients

     atomic species   valence    mass     pseudopotential
     Al                3.00    26.98154     Al( 1.00)
     Ti               12.00    47.86700     Ti( 1.00)
     H                 1.00     1.00794     H ( 1.00)
     K                 9.00    39.09830     K ( 1.00)
     Mg               10.00    24.30500     Mg( 1.00)
     O                 6.00    15.99940     O ( 1.00)
     Si                4.00    28.08550     Si( 1.00)

     Starting magnetic structure
     atomic species   magnetization
     Al              0.000
     Ti              0.300
     H               0.000
     K               0.000
     Mg              0.000
     O               0.000
     Si              0.000

      2 Sym. Ops. (no inversion) found

                                    s                        frac. trans.

      isym =  1     identity

 cryst.   s( 1) = (     1          0          0      )
                  (     0          1          0      )
                  (     0          0          1      )

 cart.    s( 1) = (  1.0000000  0.0000000  0.0000000 )
                  (  0.0000000  1.0000000  0.0000000 )
                  (  0.0000000  0.0000000  1.0000000 )

      isym =  2     180 deg rotation - cart. axis [0,1,0]

 cryst.   s( 2) = (    -1          0          0      )
                  (     0          1          0      )
                  (     0          0         -1      )

 cart.    s( 2) = ( -1.0000000  0.0000000 -0.0000000 )
                  (  0.0000000  1.0000000  0.0000000 )
                  (  0.0000000  0.0000000 -1.0000000 )

     point group C_2  (2)
     there are  2 classes
     the character table:

       E     C2
A      1.00  1.00
B      1.00 -1.00

     the symmetry operations in each class and the name of the first element:

     E        1
          identity
     C2       2
          180 deg rotation - cart. axis [0,1,0]

   Cartesian axes

     site n.     atom                  positions (alat units)
         1        K      tau(   1) = (   0.0000000   0.8500250   0.0000000  )
         2        K      tau(   2) = (   0.5000001   0.0129874   0.0000000  )
         3        Mg     tau(   3) = (  -0.1721948   0.0077214   0.9631892  )
         4        Mg     tau(   4) = (   0.3278053   0.8557948   0.9631892  )
         5        Mg     tau(   5) = (   0.3278053   1.4487986   0.9631892  )
         6        Mg     tau(   6) = (   0.3278053   0.2995781   0.9631892  )
         7        Si     tau(   7) = (   0.0065464   0.2863232   0.4366446  )
         8        Si     tau(   8) = (   0.6490642   0.2863232   1.4897338  )
         9        Si     tau(   9) = (   0.6700451   1.4481368   1.4769596  )
        10        Si     tau(  10) = (  -0.0144345   1.4481368   0.4494187  )
        11        Si     tau(  11) = (   0.4850690   1.1571201   0.4451794  )
        12        Si     tau(  12) = (   0.1705415   1.1571201   1.4811990  )
        13        Al     tau(  13) = (   0.1481378   0.5745631   1.4858453  )
        14        Al     tau(  14) = (   0.5074727   0.5745631   0.4405331  )
        15        O      tau(  15) = (  -0.0053818   0.2845266   0.7435308  )
        16        O      tau(  16) = (   0.6609924   0.2845266   1.1828475  )
        17        O      tau(  17) = (   0.6648623   1.4463792   1.1726078  )
        18        O      tau(  18) = (  -0.0092517   1.4463792   0.7537706  )
        19        O      tau(  19) = (   0.4909734   1.1615894   0.7508691  )
        20        O      tau(  20) = (   0.1646372   1.1615894   1.1755093  )
        21        O      tau(  21) = (   0.1533653   0.5775173   1.1602818  )
        22        O      tau(  22) = (   0.5022453   0.5775173   0.7660965  )
        23        O      tau(  23) = (   0.2836155   0.3559826   0.3271266  )
        24        O      tau(  24) = (   0.3719951   0.3559826   1.5992516  )
        25        O      tau(  25) = (  -0.0573653   1.7307557   0.3331647  )
        26        O      tau(  26) = (   0.7129759   1.7307557   1.5932136  )
        27        O      tau(  27) = (   0.4014220   1.3398431   1.5902067  )
        28        O      tau(  28) = (   0.2541885   1.3398431   0.3361717  )
        29        O      tau(  29) = (   0.7533736   1.2762782   0.3346307  )
        30        O      tau(  30) = (  -0.0977631   1.2762782   1.5917477  )
        31        O      tau(  31) = (   0.4457693   0.8816150   0.3226733  )
        32        O      tau(  32) = (   0.2098412   0.8816150   1.6037051  )
        33        O      tau(  33) = (  -0.1438441   0.4759522   1.6105977  )
        34        O      tau(  34) = (   0.7994547   0.4759522   0.3157807  )
        35        O      tau(  35) = (  -0.0052927   0.8751793   0.7641997  )
        36        O      tau(  36) = (   0.6609033   0.8751793   1.1621787  )
[...]
     atom    5 type  5   force =    -0.00000215   -0.00020390    0.00000145
     atom    6 type  5   force =    -0.00000214   -0.00056592    0.00000145
     atom    7 type  7   force =     0.00116293    0.00986175   -0.00402656
     atom    8 type  7   force =    -0.00116179    0.00986178    0.00402607
     atom    9 type  7   force =    -0.00178500    0.00251881   -0.02159912
     atom   10 type  7   force =     0.00178576    0.00251878    0.02159830
     atom   11 type  7   force =    -0.00237444   -0.01160921    0.01683415
     atom   12 type  7   force =     0.00237511   -0.01160916   -0.01683498
     atom   13 type  1   force =    -0.00144331   -0.00215677    0.00137973
     atom   14 type  1   force =     0.00144399   -0.00215675   -0.00138018
     atom   15 type  6   force =    -0.00004122   -0.00092477    0.00579111
     atom   16 type  6   force =     0.00004152   -0.00092482   -0.00579111
     atom   17 type  6   force =    -0.00005454   -0.00169269   -0.00808261
     atom   18 type  6   force =     0.00005489   -0.00169265    0.00808251
     atom   19 type  6   force =     0.00157513    0.00012433    0.00749450
     atom   20 type  6   force =    -0.00157483    0.00012434   -0.00749450
     atom   21 type  6   force =     0.00115709   -0.00001402   -0.00208777
     atom   22 type  6   force =    -0.00115684   -0.00001402    0.00208764
     atom   23 type  6   force =     0.00475167   -0.00195577   -0.00527519
     atom   24 type  6   force =    -0.00475164   -0.00195569    0.00527497
     atom   25 type  6   force =    -0.00339033    0.00015994   -0.00693619
     atom   26 type  6   force =     0.00339073    0.00015993    0.00693591
     atom   27 type  6   force =    -0.00133342    0.00190910    0.00792830
     atom   28 type  6   force =     0.00133342    0.00190926   -0.00792851
     atom   29 type  6   force =     0.00063041   -0.00156419   -0.00710525
     atom   30 type  6   force =    -0.00063041   -0.00156401    0.00710503
     atom   31 type  6   force =    -0.00193323   -0.00294162   -0.00681712
     atom   32 type  6   force =     0.00193355   -0.00294163    0.00681690
     atom   33 type  6   force =     0.00129130    0.00378176    0.00691171
     atom   34 type  6   force =    -0.00129113    0.00378185   -0.00691194
     atom   35 type  6   force =     0.00702288   -0.00868808   -0.00305061
     atom   36 type  6   force =    -0.00702256   -0.00868826    0.00305030
     atom   37 type  6   force =    -0.00026032   -0.00121922    0.01116763
     atom   38 type  6   force =     0.00026084   -0.00121920   -0.01116744
     atom   39 type  3   force =     0.00000000    0.00000000    0.00000000
     atom   40 type  3   force =     0.00000000    0.00000000    0.00000000
     atom   41 type  3   force =     0.00000000    0.00000000    0.00000000
     atom   42 type  3   force =     0.00000000    0.00000000    0.00000000
     atom   43 type  2   force =     0.00000469   -0.00981039   -0.00000487
     The Hubbard contrib.    to forces
     atom    1 type  4   force =     0.00000000    0.00000000    0.00000000
     atom    2 type  4   force =     0.00000000    0.00000000    0.00000000
     atom    3 type  5   force =     0.00000000    0.00000000    0.00000000
     atom    4 type  5   force =     0.00000000    0.00000000    0.00000000
     atom    5 type  5   force =     0.00000000    0.00000000    0.00000000
     atom    6 type  5   force =     0.00000000    0.00000000    0.00000000
     atom    7 type  7   force =     0.00000000    0.00000000    0.00000000
     atom    8 type  7   force =     0.00000000    0.00000000    0.00000000
     atom    9 type  7   force =     0.00000000    0.00000000    0.00000000
     atom   10 type  7   force =     0.00000000    0.00000000    0.00000000
     atom   11 type  7   force =     0.00000000    0.00000000    0.00000000
     atom   12 type  7   force =     0.00000000    0.00000000    0.00000000
     atom   13 type  1   force =     0.00000000    0.00000000    0.00000000
     atom   14 type  1   force =     0.00000000    0.00000000    0.00000000
     atom   15 type  6   force =     0.00000000    0.00000000    0.00000000
     atom   16 type  6   force =     0.00000000    0.00000000    0.00000000
     atom   17 type  6   force =     0.00000000    0.00000000    0.00000000
     atom   18 type  6   force =     0.00000000    0.00000000    0.00000000
     atom   19 type  6   force =     0.00000000    0.00000000    0.00000000
     atom   20 type  6   force =     0.00000000    0.00000000    0.00000000
     atom   21 type  6   force =     0.00000000    0.00000000    0.00000000
     atom   22 type  6   force =     0.00000000    0.00000000    0.00000000
     atom   23 type  6   force =     0.00000000    0.00000000    0.00000000
     atom   24 type  6   force =     0.00000000    0.00000000    0.00000000
     atom   25 type  6   force =     0.00000000    0.00000000    0.00000000
     atom   26 type  6   force =     0.00000000    0.00000000    0.00000000
     atom   27 type  6   force =     0.00000000    0.00000000    0.00000000
     atom   28 type  6   force =     0.00000000    0.00000000    0.00000000
     atom   29 type  6   force =     0.00000000    0.00000000    0.00000000
     atom   30 type  6   force =     0.00000000    0.00000000    0.00000000
     atom   31 type  6   force =     0.00000000    0.00000000    0.00000000
     atom   32 type  6   force =     0.00000000    0.00000000    0.00000000
     atom   33 type  6   force =     0.00000000    0.00000000    0.00000000
     atom   34 type  6   force =     0.00000000    0.00000000    0.00000000
     atom   35 type  6   force =     0.00000000    0.00000000    0.00000000
     atom   36 type  6   force =     0.00000000    0.00000000    0.00000000
     atom   37 type  6   force =     0.00000000    0.00000000    0.00000000
     atom   38 type  6   force =     0.00000000    0.00000000    0.00000000
     atom   39 type  3   force =     0.00000000    0.00000000    0.00000000
     atom   40 type  3   force =     0.00000000    0.00000000    0.00000000
     atom   41 type  3   force =     0.00000000    0.00000000    0.00000000
     atom   42 type  3   force =     0.00000000    0.00000000    0.00000000
     atom   43 type  2   force =     0.00000000    0.00000000    0.00000000
     The SCF correction term to forces
     atom    1 type  4   force =    -0.00000000    0.00001931   -0.00000000
     atom    2 type  4   force =    -0.00000000   -0.00002914    0.00000000
     atom    3 type  5   force =     0.00000000   -0.00001814   -0.00000000
     atom    4 type  5   force =    -0.00000000    0.00000248   -0.00000000
     atom    5 type  5   force =    -0.00000000    0.00003640    0.00000000
     atom    6 type  5   force =    -0.00000000   -0.00004552    0.00000000
     atom    7 type  7   force =    -0.00000451   -0.00000396   -0.00001528
     atom    8 type  7   force =     0.00000451   -0.00000396    0.00001528
     atom    9 type  7   force =    -0.00000173   -0.00000810    0.00000265
     atom   10 type  7   force =     0.00000173   -0.00000810   -0.00000265
     atom   11 type  7   force =    -0.00000310    0.00000524    0.00000703
     atom   12 type  7   force =     0.00000310    0.00000524   -0.00000703
     atom   13 type  1   force =    -0.00000081    0.00000292    0.00000507
     atom   14 type  1   force =     0.00000081    0.00000292   -0.00000507
     atom   15 type  6   force =     0.00001787   -0.00002583   -0.00002493
     atom   16 type  6   force =    -0.00001787   -0.00002583    0.00002493
     atom   17 type  6   force =    -0.00000280    0.00000656   -0.00001085
     atom   18 type  6   force =     0.00000280    0.00000656    0.00001085
     atom   19 type  6   force =    -0.00000253   -0.00001188   -0.00000788
     atom   20 type  6   force =     0.00000253   -0.00001188    0.00000788
     atom   21 type  6   force =     0.00002530    0.00001705    0.00001997
     atom   22 type  6   force =    -0.00002530    0.00001705   -0.00001997
     atom   23 type  6   force =     0.00000466   -0.00000948   -0.00000132
     atom   24 type  6   force =    -0.00000466   -0.00000948    0.00000132
     atom   25 type  6   force =     0.00000031   -0.00001359   -0.00001406
     atom   26 type  6   force =    -0.00000031   -0.00001359    0.00001406
     atom   27 type  6   force =     0.00001681    0.00000420    0.00000552
     atom   28 type  6   force =    -0.00001681    0.00000420   -0.00000552
     atom   29 type  6   force =     0.00001396    0.00001035    0.00000119
     atom   30 type  6   force =    -0.00001396    0.00001035   -0.00000119
     atom   31 type  6   force =    -0.00000522    0.00001283    0.00004754
     atom   32 type  6   force =     0.00000522    0.00001283   -0.00004754
     atom   33 type  6   force =     0.00000456   -0.00000878    0.00001842
     atom   34 type  6   force =    -0.00000456   -0.00000878   -0.00001842
     atom   35 type  6   force =     0.00002303    0.00005105   -0.00001252
     atom   36 type  6   force =    -0.00002303    0.00005104    0.00001252
     atom   37 type  6   force =    -0.00000107   -0.00002924    0.00001627
     atom   38 type  6   force =     0.00000107   -0.00002924   -0.00001627
     atom   39 type  3   force =     0.00000452   -0.00000658   -0.00000055
     atom   40 type  3   force =    -0.00000452   -0.00000658    0.00000055
     atom   41 type  3   force =    -0.00000066   -0.00000291   -0.00000191
     atom   42 type  3   force =     0.00000066   -0.00000291    0.00000191
     atom   43 type  2   force =     0.00000000    0.00013184   -0.00000000

     DFT-D3 dispersion contribution to forces:
     atom    1 type  4   force =     0.00000001    0.00057530   -0.00000001
     atom    2 type  4   force =    -0.00000000   -0.00066131    0.00000000
     atom    3 type  5   force =    -0.00000000   -0.00199719    0.00000000
     atom    4 type  5   force =     0.00000000    0.00080986   -0.00000000
     atom    5 type  5   force =     0.00000000   -0.00025081   -0.00000000
     atom    6 type  5   force =     0.00000000   -0.00082125   -0.00000000
     atom    7 type  7   force =     0.00000400    0.00011628   -0.00030351
     atom    8 type  7   force =    -0.00000400    0.00011628    0.00030351
     atom    9 type  7   force =     0.00047733   -0.00024136   -0.00066564
     atom   10 type  7   force =    -0.00047732   -0.00024136    0.00066564
     atom   11 type  7   force =     0.00063505   -0.00002884    0.00047355
     atom   12 type  7   force =    -0.00063505   -0.00002884   -0.00047355
     atom   13 type  1   force =     0.00006791   -0.00017038   -0.00068557
     atom   14 type  1   force =    -0.00006792   -0.00017038    0.00068557
     atom   15 type  6   force =     0.00007839   -0.00016877    0.00033384
     atom   16 type  6   force =    -0.00007839   -0.00016877   -0.00033384
     atom   17 type  6   force =     0.00023076    0.00010391   -0.00064626
     atom   18 type  6   force =    -0.00023076    0.00010391    0.00064626
     atom   19 type  6   force =    -0.00000777    0.00010666    0.00061639
     atom   20 type  6   force =     0.00000777    0.00010666   -0.00061639
     atom   21 type  6   force =     0.00004312   -0.00011462    0.00017989
     atom   22 type  6   force =    -0.00004312   -0.00011462   -0.00017989
     atom   23 type  6   force =    -0.00019227    0.00093334    0.00025986
     atom   24 type  6   force =     0.00019227    0.00093334   -0.00025986
     atom   25 type  6   force =     0.00090955    0.00011478    0.00015420
     atom   26 type  6   force =    -0.00090955    0.00011478   -0.00015419
     atom   27 type  6   force =     0.00030569   -0.00033161   -0.00012652
     atom   28 type  6   force =    -0.00030569   -0.00033161    0.00012652
     atom   29 type  6   force =    -0.00017973    0.00026604    0.00023725
     atom   30 type  6   force =     0.00017972    0.00026603   -0.00023725
     atom   31 type  6   force =     0.00089669   -0.00048774    0.00042182
     atom   32 type  6   force =    -0.00089670   -0.00048774   -0.00042182
     atom   33 type  6   force =     0.00060943   -0.00054664   -0.00031468
     atom   34 type  6   force =    -0.00060943   -0.00054664    0.00031468
     atom   35 type  6   force =     0.00008940    0.00035976   -0.00049558
     atom   36 type  6   force =    -0.00008940    0.00035976    0.00049558
     atom   37 type  6   force =     0.00000434    0.00014253   -0.00059383
     atom   38 type  6   force =    -0.00000434    0.00014253    0.00059382
     atom   39 type  3   force =    -0.00040245    0.00052297   -0.00003598
     atom   40 type  3   force =     0.00040245    0.00052297    0.00003598
     atom   41 type  3   force =    -0.00012456   -0.00007472   -0.00040884
     atom   42 type  3   force =     0.00012456   -0.00007472    0.00040884
     atom   43 type  2   force =    -0.00000000    0.00134218   -0.00000000

     Total force =     0.003566     Total SCF correction =     0.000217

     DFT-D3 dispersion Force =     0.005020
     Energy error            =      2.9E-05 Ry
     Gradient error          =      9.8E-04 Ry/Bohr

     bfgs converged in  46 scf cycles and  44 bfgs steps
     (criteria: energy <  1.0E-04 Ry, force <  1.0E-03 Ry/Bohr)

     End of BFGS Geometry Optimization

     Final energy             =   -2344.3746473147 Ry

     File ./temp/phl-ti1-ti2-v3.bfgs deleted, as requested
Begin final coordinates

ATOMIC_POSITIONS (crystal)
K                0.0000000000        0.4958014702        0.0000000000
K                0.5000001190        0.0042149391        0.0000000000
Mg               0.0000001800       -0.0235446881        0.4999998810
Mg               0.5000002980        0.5053622078        0.4999998810
Mg               0.5000002980        0.8213046568        0.4999998810
Mg               0.5000002980        0.1602943111        0.4999998810
Si               0.0770322355        0.1631271530        0.2252867976
Si               0.9229683755        0.1631271530        0.7747129794
Si               0.9351052269        0.8308982093        0.7692233933
Si               0.0648953691        0.8308982093        0.2307763377
Si               0.5549924926        0.6644754034        0.2259282218
Si               0.4450080734        0.6644754034        0.7740715242
Al               0.4166633063        0.3315372388        0.7754108753
Al               0.5833372607        0.3315372388        0.2245888867
O                0.1192798496        0.1705586418        0.3879971660
O                0.8807207164        0.1705586418        0.6120025660
O                0.8615245215        0.8330297560        0.6139700078
O                0.1384760895        0.8330297560        0.3860297242
O                0.5992181361        0.6604269957        0.3825162698
O                0.4007824599        0.6604269957        0.6174834912
O                0.3477335524        0.3286714867        0.6001318855
O                0.6522670736        0.3286714867        0.3998678465
O                0.3400011750        0.2042453534        0.1759175475
O                0.6599993620        0.2042453534        0.8240821395
O               -0.0000550922        0.9963569535        0.1730230924
O                1.0000556882        0.9963569535        0.8269766546
O                0.6960960743        0.7678170813        0.8364206540
O                0.3039044927        0.7678170813        0.1635791080
O                0.8054940547        0.7365339259        0.1726807541
O                0.1945065563        0.7365339259        0.8273190219
O                0.5057910082        0.5046308524        0.1612202282
O                0.4942095288        0.5046308524        0.8387795478
O                0.1548522816        0.2669718600        0.8396781085
O                0.8451483444        0.2669718600        0.1603216225
O                0.1228193228        0.4818410083        0.3947068286
O                0.8771813032        0.4818410083        0.6052929334
O                0.6358761671        0.9970057253        0.4014181756
O                0.3641244889        0.9970057253        0.5985815864
H                0.0335379462        0.5752051807        0.3896873003
H                0.9664627168        0.5752051807        0.6103124017
H                0.6017039854        0.0042066191        0.3074174316
H                0.3982966106        0.0042066191        0.6925823604
Ti               0.0000001800        0.3361939787        0.4999998810
End final coordinates

     Writing all to output data dir ./temp/phl-ti1-ti2-v3.save/ :
     XML data file, charge density, pseudopotentials, collected wavefunctions

     General routines

     Parallel routines

     PAW routines

   This run was terminated on:  12:57:51  25Mar2025

   JOB DONE.