     Program PWSCF v.7.3.1 starts on  7Jan2025 at 15:28:26

     Reading input from relax.in
Warning: card  &CELL ignored
Warning: card    CELL_DOFREE     = 'IBRAV' ignored
Warning: card  / ignored

     Current dimensions of program PWSCF are:
     Max number of different atomic species (ntypx) = 10
     Max number of k-points (npk) =  40000
     Max angular momentum in pseudopotentials (lmaxx) =  4
     file Al.pbe-n-kjpaw_psl.1.0.0.UPF: wavefunction(s)  3S 3P renormalized
     file Fe.pbe-spn-kjpaw_psl.1.0.0.UPF: wavefunction(s)  3P 3D renormalized
     file H.pbe-kjpaw_psl.1.0.0.UPF: wavefunction(s)  1S renormalized
     file K.pbe-spn-kjpaw_psl.1.0.0.UPF: wavefunction(s)  3S renormalized
     file Mg.pbe-spnl-kjpaw_psl.1.0.0.UPF: wavefunction(s)  2P renormalized
     file O.pbe-n-kjpaw_psl.1.0.0.UPF: wavefunction(s)  2S 2P renormalized
     file Si.pbe-n-kjpaw_psl.1.0.0.UPF: wavefunction(s)  3S 3P renormalized

     R & G space division:  proc/nbgrp/npool/nimage =       6
     Subspace diagonalization in iterative solution of the eigenvalue problem:
     one sub-group per band group will be used

     Using Slab Decomposition

     bravais-lattice index     =          -12
     lattice parameter (alat)  =      10.0136  a.u.
     unit-cell volume          =    3303.4414 (a.u.)^3
     number of atoms/cell      =           44
     number of atomic types    =            7
     number of electrons       =       262.00
     number of Kohn-Sham states=          157
     kinetic-energy cutoff     =      60.0000  Ry
     charge density cutoff     =     480.0000  Ry
     scf convergence threshold =      1.0E-06
     mixing beta               =       0.7000
     number of iterations used =            8  plain     mixing
     energy convergence thresh.=      1.0E-04
     force convergence thresh. =      1.0E-03
     Exchange-correlation= SLA  PW   PBX  PBC
                           (   1   4   3   4   0   0   0)
     nstep                     =           50

     celldm(1)=  10.013640  celldm(2)=   1.735306  celldm(3)=   1.926511
     celldm(4)=   0.000000  celldm(5)=  -0.177565  celldm(6)=   0.000000

     crystal axes: (cart. coord. in units of alat)
               a(1) = (   1.000000   0.000000   0.000000 )
               a(2) = (   0.000000   1.735306   0.000000 )
               a(3) = (  -0.342081   0.000000   1.895896 )

     reciprocal axes: (cart. coord. in units 2 pi/alat)
               b(1) = (  1.000000 -0.000000  0.180432 )
               b(2) = (  0.000000  0.576267 -0.000000 )
               b(3) = (  0.000000  0.000000  0.527455 )

     PseudoPot. # 1 for Al read from file:
     ./../../../pseudos/Al.pbe-n-kjpaw_psl.1.0.0.UPF
     MD5 check sum: 502b6b27b9c6270cab5dd1084b96fa6d
     Pseudo is Projector augmented-wave + core cor, Zval =  3.0
     Generated using &quot;atomic&quot; code by A. Dal Corso  v.6.3
     Shape of augmentation charge: PSQ
     Using radial grid of 1135 points,  6 beta functions with:
                l(1) =   0
                l(2) =   0
                l(3) =   1
                l(4) =   1
                l(5) =   2
                l(6) =   2
     Q(r) pseudized with 0 coefficients

     PseudoPot. # 2 for Fe read from file:
     ./../../../pseudos/Fe.pbe-spn-kjpaw_psl.1.0.0.UPF
     MD5 check sum: fc81f059e5c5069939230b1155715ae8
     Pseudo is Projector augmented-wave + core cor, Zval = 16.0
     Generated using &quot;atomic&quot; code by A. Dal Corso  v.6.3
     Shape of augmentation charge: PSQ
     Using radial grid of 1191 points,  6 beta functions with:
                l(1) =   0
                l(2) =   0
                l(3) =   1
                l(4) =   1
                l(5) =   2
                l(6) =   2
     Q(r) pseudized with 0 coefficients

     PseudoPot. # 3 for H  read from file:
     ./../../../pseudos/H.pbe-kjpaw_psl.1.0.0.UPF
     MD5 check sum: d81a744832360e4a8af0b0b5b123bc2a
     Pseudo is Projector augmented-wave, Zval =  1.0
     Generated using &quot;atomic&quot; code by A. Dal Corso  v.6.3MaX
     Shape of augmentation charge: PSQ
     Using radial grid of  929 points,  2 beta functions with:
                l(1) =   0
                l(2) =   0
     Q(r) pseudized with 0 coefficients

     PseudoPot. # 4 for K  read from file:
     ./../../../pseudos/K.pbe-spn-kjpaw_psl.1.0.0.UPF
     MD5 check sum: 34cc42130a09071ebe376fd42eb21491
     Pseudo is Projector augmented-wave + core cor, Zval =  9.0
     Generated using &quot;atomic&quot; code by A. Dal Corso  v.6.2.2
     Shape of augmentation charge: PSQ
     Using radial grid of 1165 points,  6 beta functions with:
                l(1) =   0
                l(2) =   0
                l(3) =   1
                l(4) =   1
                l(5) =   2
                l(6) =   2
     Q(r) pseudized with 0 coefficients

     PseudoPot. # 5 for Mg read from file:
     ./../../../pseudos/Mg.pbe-spnl-kjpaw_psl.1.0.0.UPF
     MD5 check sum: fda14e0d92a6a9a5ebed782e5a4b3067
     Pseudo is Projector augmented-wave + core cor, Zval = 10.0
     Generated using &quot;atomic&quot; code by A. Dal Corso  v.6.3
     Shape of augmentation charge: PSQ
     Using radial grid of 1129 points,  4 beta functions with:
                l(1) =   0
                l(2) =   0
                l(3) =   1
                l(4) =   1
     Q(r) pseudized with 0 coefficients

     PseudoPot. # 6 for O  read from file:
     ./../../../pseudos/O.pbe-n-kjpaw_psl.1.0.0.UPF
     MD5 check sum: e99d9cef9b487d1ca56f5b95ecd0fd7a
     Pseudo is Projector augmented-wave + core cor, Zval =  6.0
     Generated using &quot;atomic&quot; code by A. Dal Corso  v.6.3
     Shape of augmentation charge: PSQ
     Using radial grid of 1095 points,  4 beta functions with:
                l(1) =   0
                l(2) =   0
                l(3) =   1
                l(4) =   1
     Q(r) pseudized with 0 coefficients

     PseudoPot. # 7 for Si read from file:
     ./../../../pseudos/Si.pbe-n-kjpaw_psl.1.0.0.UPF
     MD5 check sum: c39c59da582df4a0d9f10159256ea34e
     Pseudo is Projector augmented-wave + core cor, Zval =  4.0
     Generated using &quot;atomic&quot; code by A. Dal Corso  v.6.3
     Shape of augmentation charge: PSQ
     Using radial grid of 1141 points,  6 beta functions with:
                l(1) =   0
                l(2) =   0
                l(3) =   1
                l(4) =   1
                l(5) =   2
                l(6) =   2
     Q(r) pseudized with 0 coefficients

     atomic species   valence    mass     pseudopotential
     Al                3.00    26.98154     Al( 1.00)
     Fe               16.00    55.84500     Fe( 1.00)
     H                 1.00     1.00794     H ( 1.00)
     K                 9.00    39.09830     K ( 1.00)
     Mg               10.00    24.30500     Mg( 1.00)
     O                 6.00    15.99940     O ( 1.00)
     Si                4.00    28.08550     Si( 1.00)

     Starting magnetic structure
     atomic species   magnetization
     Al              0.000
     Fe              0.300
     H               0.000
     K               0.000
     Mg              0.000
     O               0.000
     Si              0.000

      2 Sym. Ops. (no inversion) found

                                    s                        frac. trans.

      isym =  1     identity

 cryst.   s( 1) = (     1          0          0      )
                  (     0          1          0      )
                  (     0          0          1      )

 cart.    s( 1) = (  1.0000000  0.0000000 -0.0000000 )
                  (  0.0000000  1.0000000  0.0000000 )
                  (  0.0000000  0.0000000  1.0000000 )

      isym =  2     180 deg rotation - cart. axis [0,1,0]

 cryst.   s( 2) = (    -1          0          0      )
                  (     0          1          0      )
                  (     0          0         -1      )

 cart.    s( 2) = ( -1.0000000  0.0000000  0.0000000 )
                  (  0.0000000  1.0000000  0.0000000 )
                  (  0.0000000  0.0000000 -1.0000000 )

     point group C_2  (2)
     there are  2 classes
     the character table:

       E     C2
A      1.00  1.00
B      1.00 -1.00

     the symmetry operations in each class and the name of the first element:

     E        1
          identity
     C2       2
          180 deg rotation - cart. axis [0,1,0]

   Cartesian axes

     site n.     atom                  positions (alat units)
         1        K      tau(   1) = (   0.0000000   0.8559224   0.0000000  )
         2        K      tau(   2) = (   0.5000000   0.0093568   0.0000000  )
         3        Mg     tau(   3) = (  -0.1710407   0.0067712   0.9479482  )
         4        Mg     tau(   4) = (  -0.1710407   1.1543881   0.9479482  )
         5        Mg     tau(   5) = (   0.3289593   0.8562226   0.9479482  )
         6        Mg     tau(   6) = (   0.3289593   1.4480089   0.9479482  )
         7        Mg     tau(   7) = (   0.3289593   0.2986375   0.9479482  )
         8        Si     tau(   8) = (   0.0066674   0.2865251   0.4219393  )
         9        Si     tau(   9) = (   0.6512512   0.2865251   1.4739571  )
        10        Si     tau(  10) = (   0.6701371   1.4476688   1.4628623  )
        11        Si     tau(  11) = (  -0.0122184   1.4476688   0.4330341  )
        12        Si     tau(  12) = (   0.4872056   1.1568454   0.4292651  )
        13        Si     tau(  13) = (   0.1707131   1.1568454   1.4666313  )
        14        Al     tau(  14) = (   0.1506005   0.5746762   1.4713786  )
        15        Al     tau(  15) = (   0.5073182   0.5746762   0.4245178  )
        16        O      tau(  16) = (  -0.0043508   0.2833738   0.7297400  )
        17        O      tau(  17) = (   0.6622695   0.2833738   1.1661564  )
        18        O      tau(  18) = (   0.6658139   1.4451231   1.1576912  )
        19        O      tau(  19) = (  -0.0078952   1.4451231   0.7382052  )
        20        O      tau(  20) = (   0.4926234   1.1618863   0.7357690  )
        21        O      tau(  21) = (   0.1652953   1.1618863   1.1601274  )
        22        O      tau(  22) = (   0.1548298   0.5779784   1.1454267  )
        23        O      tau(  23) = (   0.5030889   0.5779784   0.7504697  )
        24        O      tau(  24) = (   0.2847398   0.3548857   0.3143567  )
        25        O      tau(  25) = (   0.3731789   0.3548857   1.5815397  )
        26        O      tau(  26) = (   0.9404978   1.7303189   0.3181314  )
        27        O      tau(  27) = (  -0.2825791   1.7303189   1.5777650  )
        28        O      tau(  28) = (   0.3988927   1.3439356   1.5754330  )
        29        O      tau(  29) = (   0.2590260   1.3439356   0.3204634  )
        30        O      tau(  30) = (   0.7582660   1.2710892   0.3185125  )
        31        O      tau(  31) = (  -0.1003473   1.2710892   1.5773839  )
        32        O      tau(  32) = (   0.4432368   0.8811364   0.3085875  )
        33        O      tau(  33) = (   0.2146819   0.8811364   1.5873090  )
        34        O      tau(  34) = (  -0.1423236   0.4782556   1.5925436  )
        35        O      tau(  35) = (   0.8002423   0.4782556   0.3033529  )
[...]
     atom    2 type  4   force =     0.00000000    0.00000000    0.00000000
     atom    3 type  5   force =     0.00000000    0.00000000    0.00000000
     atom    4 type  5   force =     0.00000000    0.00000000    0.00000000
     atom    5 type  5   force =     0.00000000    0.00000000    0.00000000
     atom    6 type  5   force =     0.00000000    0.00000000    0.00000000
     atom    7 type  5   force =     0.00000000    0.00000000    0.00000000
     atom    8 type  7   force =     0.00000000    0.00000000    0.00000000
     atom    9 type  7   force =     0.00000000    0.00000000    0.00000000
     atom   10 type  7   force =     0.00000000    0.00000000    0.00000000
     atom   11 type  7   force =     0.00000000    0.00000000    0.00000000
     atom   12 type  7   force =     0.00000000    0.00000000    0.00000000
     atom   13 type  7   force =     0.00000000    0.00000000    0.00000000
     atom   14 type  1   force =     0.00000000    0.00000000    0.00000000
     atom   15 type  1   force =     0.00000000    0.00000000    0.00000000
     atom   16 type  6   force =     0.00000000    0.00000000    0.00000000
     atom   17 type  6   force =     0.00000000    0.00000000    0.00000000
     atom   18 type  6   force =     0.00000000    0.00000000    0.00000000
     atom   19 type  6   force =     0.00000000    0.00000000    0.00000000
     atom   20 type  6   force =     0.00000000    0.00000000    0.00000000
     atom   21 type  6   force =     0.00000000    0.00000000    0.00000000
     atom   22 type  6   force =     0.00000000    0.00000000    0.00000000
     atom   23 type  6   force =     0.00000000    0.00000000    0.00000000
     atom   24 type  6   force =     0.00000000    0.00000000    0.00000000
     atom   25 type  6   force =     0.00000000    0.00000000    0.00000000
     atom   26 type  6   force =     0.00000000    0.00000000    0.00000000
     atom   27 type  6   force =     0.00000000    0.00000000    0.00000000
     atom   28 type  6   force =     0.00000000    0.00000000    0.00000000
     atom   29 type  6   force =     0.00000000    0.00000000    0.00000000
     atom   30 type  6   force =     0.00000000    0.00000000    0.00000000
     atom   31 type  6   force =     0.00000000    0.00000000    0.00000000
     atom   32 type  6   force =     0.00000000    0.00000000    0.00000000
     atom   33 type  6   force =     0.00000000    0.00000000    0.00000000
     atom   34 type  6   force =     0.00000000    0.00000000    0.00000000
     atom   35 type  6   force =     0.00000000    0.00000000    0.00000000
     atom   36 type  6   force =     0.00000000    0.00000000    0.00000000
     atom   37 type  6   force =     0.00000000    0.00000000    0.00000000
     atom   38 type  6   force =     0.00000000    0.00000000    0.00000000
     atom   39 type  6   force =     0.00000000    0.00000000    0.00000000
     atom   40 type  3   force =     0.00000000    0.00000000    0.00000000
     atom   41 type  3   force =     0.00000000    0.00000000    0.00000000
     atom   42 type  3   force =     0.00000000    0.00000000    0.00000000
     atom   43 type  3   force =     0.00000000    0.00000000    0.00000000
     atom   44 type  2   force =     0.00000000    0.00000000    0.00000000
     The SCF correction term to forces
     atom    1 type  4   force =     0.00000000    0.00000806   -0.00000000
     atom    2 type  4   force =     0.00000000   -0.00001244    0.00000000
     atom    3 type  5   force =     0.00000000    0.00000336    0.00000000
     atom    4 type  5   force =    -0.00000000   -0.00000163   -0.00000000
     atom    5 type  5   force =     0.00000000   -0.00001612   -0.00000000
     atom    6 type  5   force =    -0.00000000    0.00002600    0.00000000
     atom    7 type  5   force =    -0.00000000   -0.00003367    0.00000000
     atom    8 type  7   force =    -0.00000183    0.00000026   -0.00001372
     atom    9 type  7   force =     0.00000183    0.00000026    0.00001372
     atom   10 type  7   force =    -0.00000040   -0.00000130    0.00001338
     atom   11 type  7   force =     0.00000040   -0.00000130   -0.00001338
     atom   12 type  7   force =    -0.00000115   -0.00000406   -0.00001835
     atom   13 type  7   force =     0.00000115   -0.00000406    0.00001835
     atom   14 type  1   force =     0.00000151    0.00000050    0.00001418
     atom   15 type  1   force =    -0.00000151    0.00000050   -0.00001418
     atom   16 type  6   force =    -0.00002535   -0.00000978   -0.00002708
     atom   17 type  6   force =     0.00002535   -0.00000978    0.00002708
     atom   18 type  6   force =    -0.00000239    0.00000576    0.00002338
     atom   19 type  6   force =     0.00000239    0.00000576   -0.00002338
     atom   20 type  6   force =     0.00000671    0.00000498   -0.00003542
     atom   21 type  6   force =    -0.00000671    0.00000499    0.00003542
     atom   22 type  6   force =    -0.00000229   -0.00000840    0.00000896
     atom   23 type  6   force =     0.00000229   -0.00000840   -0.00000896
     atom   24 type  6   force =    -0.00000924    0.00001473   -0.00002099
     atom   25 type  6   force =     0.00000924    0.00001473    0.00002099
     atom   26 type  6   force =    -0.00000026   -0.00000100   -0.00001291
     atom   27 type  6   force =     0.00000026   -0.00000100    0.00001291
     atom   28 type  6   force =    -0.00000891    0.00000919    0.00001627
     atom   29 type  6   force =     0.00000891    0.00000919   -0.00001627
     atom   30 type  6   force =     0.00002693   -0.00003392   -0.00001887
     atom   31 type  6   force =    -0.00002693   -0.00003392    0.00001887
     atom   32 type  6   force =    -0.00005874   -0.00000566   -0.00000965
     atom   33 type  6   force =     0.00005874   -0.00000566    0.00000965
     atom   34 type  6   force =     0.00001985   -0.00000678    0.00001456
     atom   35 type  6   force =    -0.00001985   -0.00000678   -0.00001456
     atom   36 type  6   force =    -0.00001634    0.00001358   -0.00002739
     atom   37 type  6   force =     0.00001634    0.00001358    0.00002739
     atom   38 type  6   force =    -0.00000741    0.00001036   -0.00000111
     atom   39 type  6   force =     0.00000741    0.00001036    0.00000111
     atom   40 type  3   force =    -0.00000021    0.00000048   -0.00000750
     atom   41 type  3   force =     0.00000021    0.00000048    0.00000750
     atom   42 type  3   force =    -0.00000030    0.00000024   -0.00000236
     atom   43 type  3   force =     0.00000030    0.00000024    0.00000236
     atom   44 type  2   force =     0.00000000   -0.00003488    0.00000000

     DFT-D3 dispersion contribution to forces:
     atom    1 type  4   force =    -0.00000000    0.00053132    0.00000000
     atom    2 type  4   force =     0.00000000    0.00001935    0.00000000
     atom    3 type  5   force =     0.00000000    0.00041657   -0.00000000
     atom    4 type  5   force =    -0.00000000   -0.00139510   -0.00000000
     atom    5 type  5   force =     0.00000000   -0.00043303    0.00000000
     atom    6 type  5   force =    -0.00000000    0.00114510    0.00000000
     atom    7 type  5   force =     0.00000000   -0.00030467   -0.00000000
     atom    8 type  7   force =    -0.00000135   -0.00006514   -0.00017971
     atom    9 type  7   force =     0.00000135   -0.00006514    0.00017971
     atom   10 type  7   force =     0.00005419    0.00002704    0.00035201
     atom   11 type  7   force =    -0.00005419    0.00002704   -0.00035201
     atom   12 type  7   force =     0.00003631    0.00027032   -0.00034559
     atom   13 type  7   force =    -0.00003631    0.00027032    0.00034559
     atom   14 type  1   force =    -0.00017909   -0.00001748   -0.00104691
     atom   15 type  1   force =     0.00017909   -0.00001748    0.00104691
     atom   16 type  6   force =    -0.00005896    0.00014050    0.00049939
     atom   17 type  6   force =     0.00005896    0.00014050   -0.00049940
     atom   18 type  6   force =     0.00000248    0.00000449   -0.00031969
     atom   19 type  6   force =    -0.00000249    0.00000449    0.00031969
     atom   20 type  6   force =    -0.00001922   -0.00000720    0.00032348
     atom   21 type  6   force =     0.00001922   -0.00000720   -0.00032348
     atom   22 type  6   force =    -0.00008410   -0.00000831    0.00003152
     atom   23 type  6   force =     0.00008410   -0.00000831   -0.00003152
     atom   24 type  6   force =    -0.00017767    0.00108255    0.00006735
     atom   25 type  6   force =     0.00017767    0.00108255   -0.00006735
     atom   26 type  6   force =     0.00073979    0.00007158    0.00020232
     atom   27 type  6   force =    -0.00073979    0.00007158   -0.00020232
     atom   28 type  6   force =     0.00041262   -0.00056478   -0.00023464
     atom   29 type  6   force =    -0.00041262   -0.00056478    0.00023464
     atom   30 type  6   force =    -0.00019935    0.00031991    0.00031985
     atom   31 type  6   force =     0.00019935    0.00031991   -0.00031985
     atom   32 type  6   force =     0.00082269   -0.00040763    0.00038831
     atom   33 type  6   force =    -0.00082269   -0.00040763   -0.00038831
     atom   34 type  6   force =     0.00068119   -0.00066024   -0.00026704
     atom   35 type  6   force =    -0.00068119   -0.00066024    0.00026704
     atom   36 type  6   force =    -0.00014216   -0.00022493   -0.00036739
     atom   37 type  6   force =     0.00014216   -0.00022493    0.00036739
     atom   38 type  6   force =     0.00000735   -0.00000141   -0.00053467
     atom   39 type  6   force =    -0.00000735   -0.00000141    0.00053467
     atom   40 type  3   force =    -0.00009768    0.00026860   -0.00012054
     atom   41 type  3   force =     0.00009768    0.00026860    0.00012054
     atom   42 type  3   force =     0.00018769   -0.00054805   -0.00024497
     atom   43 type  3   force =    -0.00018769   -0.00054805    0.00024497
     atom   44 type  2   force =    -0.00000000    0.00066082   -0.00000000

     Total force =     0.003239     Total SCF correction =     0.000176

     DFT-D3 dispersion Force =     0.004411

     Computing stress (Cartesian axis) and pressure

     negative rho (up, down):  0.000E+00 3.651E-04
          total   stress  (Ry/bohr**3)                   (kbar)     P=       17.32
   0.00011321   0.00000000  -0.00000570           16.65        0.00       -0.84
   0.00000000   0.00013194   0.00000000            0.00       19.41        0.00
  -0.00000570   0.00000000   0.00010801           -0.84        0.00       15.89

     kinetic stress (kbar)  20775.02      0.00    -59.11
                                0.00  20868.74      0.00
                              -59.11      0.00  20558.40

     local   stress (kbar) -38647.17      0.00   -255.33
                                0.00 -37917.02     -0.00
                             -255.33     -0.00  17088.35

     nonloc. stress (kbar)   3933.27      0.00      7.35
                                0.00   3921.74      0.00
                                7.35      0.00   3911.31

     hartree stress (kbar)  22031.95     -0.00     90.06
                               -0.00  21737.47     -0.00
                               90.06     -0.00  -5184.91

     exc-cor stress (kbar)  -2920.76     -0.00     -0.01
                               -0.00  -2920.53     -0.00
                               -0.01     -0.00  -2917.45

     corecor stress (kbar)  -1921.71      0.00      0.46
                                0.00  -1922.47      0.00
                                0.46      0.00  -1923.78

     ewald   stress (kbar)  -3218.44     -0.00    215.79
                               -0.00  -3733.01      0.00
                              215.79      0.00 -31504.14

     hubbard stress (kbar)      0.00      0.00      0.00
                                0.00      0.00      0.00
                                0.00      0.00      0.00

     DFT-D   stress (kbar)    -15.52     -0.00     -0.05
                               -0.00    -15.51     -0.00
                               -0.05     -0.00    -11.89

     XDM     stress (kbar)      0.00      0.00      0.00
                                0.00      0.00      0.00
                                0.00      0.00      0.00

     dft-nl  stress (kbar)      0.00      0.00      0.00
                                0.00      0.00      0.00
                                0.00      0.00      0.00

     TS-vdW  stress (kbar)      0.00      0.00      0.00
                                0.00      0.00      0.00
                                0.00      0.00      0.00

     MDB     stress (kbar)      0.00      0.00      0.00
                                0.00      0.00      0.00
                                0.00      0.00      0.00

     3D-RISM stress (kbar)      0.00      0.00      0.00
                                0.00      0.00      0.00
                                0.00      0.00      0.00

     Energy error            =      2.3E-05 Ry
     Gradient error          =      7.3E-04 Ry/Bohr

     bfgs converged in  23 scf cycles and  22 bfgs steps
     (criteria: energy <  1.0E-04 Ry, force <  1.0E-03 Ry/Bohr)

     End of BFGS Geometry Optimization

     Final energy             =   -2631.2548759786 Ry

     File ./temp/phl-fe1-fe2.bfgs deleted, as requested
Begin final coordinates

ATOMIC_POSITIONS (crystal)
K                0.0000000000        0.4990268266        0.0000000000
K                0.5000000000       -0.0046397059        0.0000000000
Mg              -0.0000000000        0.0064807879        0.5000000000
Mg              -0.0000000000        0.6667100928        0.5000000000
Mg               0.5000000000        0.4961513874        0.5000000000
Mg               0.5000000000        0.8358861082        0.5000000000
Mg               0.5000000000        0.1707286121        0.5000000000
Si               0.0928830904        0.1636759704        0.2204106250
Si               0.9071168956        0.1636759704        0.7795894050
Si               0.9341264982        0.8346381603        0.7715512498
Si               0.0658735018        0.8346381603        0.2284487502
Si               0.5653378615        0.6662324628        0.2270118695
Si               0.4346621385        0.6662324628        0.7729881155
Al               0.4059826329        0.3302694253        0.7771167336
Al               0.5940173671        0.3302694253        0.2228832664
O                0.1371830544        0.1579558903        0.3823293950
O                0.8628169156        0.1579558903        0.6176706340
O                0.8739846229        0.8349045805        0.6106420476
O                0.1260153771        0.8349045805        0.3893579524
O                0.6273392614        0.6696868669        0.3887095702
O                0.3726607386        0.6696868669        0.6112904298
O                0.3598369943        0.3337237510        0.6035903363
O                0.6401630057        0.3337237510        0.3964096637
O                0.3548361868        0.2003041140        0.1640514997
O                0.6451638132        0.2003041140        0.8359484703
O                1.0004963728        0.9970579187        0.1639842475
O               -0.0004963728        0.9970579187        0.8360157375
O                0.6843293895        0.7725828202        0.8312957356
O                0.3156706105        0.7725828202        0.1687042644
O                0.8135858267        0.7343208196        0.1673319931
O                0.1864141733        0.7343208196        0.8326680069
O                0.5030613114        0.5068903223        0.1621586068
O                0.4969386586        0.5068903223        0.8378414082
O                0.1298039929        0.2792074696        0.8403514047
O                0.8701960221        0.2792074696        0.1596485953
O                0.1368447448        0.5119708785        0.3903017853
O                0.8631552702        0.5119708785        0.6096982147
O                0.6342901889        0.9994288435        0.3965759153
O                0.3657098111        0.9994288435        0.6034240547
H                0.1073822174        0.4883716553        0.2966482197
H                0.8926178126        0.4883716553        0.7033517803
H                0.5930209784        0.0156214950        0.3016580356
H                0.4069790216        0.0156214950        0.6983419644
Fe              -0.0000000000        0.3359640558        0.5000000000
End final coordinates

     Writing all to output data dir ./temp/phl-fe1-fe2.save/ :
     XML data file, charge density, pseudopotentials, collected wavefunctions

     General routines

     Parallel routines

     PAW routines

   This run was terminated on:  22: 2: 1  10Jan2025

   JOB DONE.