     Program PWSCF v.7.3.1 starts on 30Mar2025 at 20:20:28

     Reading input from vc_relax.in

     Current dimensions of program PWSCF are:
     Max number of different atomic species (ntypx) = 10
     Max number of k-points (npk) =  40000
     Max angular momentum in pseudopotentials (lmaxx) =  4
     file Al.pbe-n-kjpaw_psl.1.0.0.UPF: wavefunction(s)  3S 3P renormalized
     file Ti.pbe-spn-kjpaw_psl.1.0.0.UPF: wavefunction(s)  3S 3P 3D renormalized
     file H.pbe-kjpaw_psl.1.0.0.UPF: wavefunction(s)  1S renormalized
     file K.pbe-spn-kjpaw_psl.1.0.0.UPF: wavefunction(s)  3S renormalized
     file Mg.pbe-spnl-kjpaw_psl.1.0.0.UPF: wavefunction(s)  2P renormalized
     file O.pbe-n-kjpaw_psl.1.0.0.UPF: wavefunction(s)  2S 2P renormalized
     file Si.pbe-n-kjpaw_psl.1.0.0.UPF: wavefunction(s)  3S 3P renormalized

     R & G space division:  proc/nbgrp/npool/nimage =       6
     Subspace diagonalization in iterative solution of the eigenvalue problem:
     a serial algorithm will be used

     Using Slab Decomposition

     bravais-lattice index     =          -12
     lattice parameter (alat)  =      10.0639  a.u.
     unit-cell volume          =    3408.7535 (a.u.)^3
     number of atoms/cell      =           43
     number of atomic types    =            7
     number of electrons       =       248.00
     number of Kohn-Sham states=          149
     kinetic-energy cutoff     =      60.0000  Ry
     charge density cutoff     =     480.0000  Ry
     scf convergence threshold =      1.0E-06
     mixing beta               =       0.7000
     number of iterations used =            8  plain     mixing
     energy convergence thresh.=      1.0E-04
     force convergence thresh. =      1.0E-03
     press convergence thresh. =      5.0E-01
     Exchange-correlation= SLA  PW   PBX  PBC
                           (   1   4   3   4   0   0   0)
     nstep                     =           50

     celldm(1)=  10.063938  celldm(2)=   1.736001  celldm(3)=   1.956921
     celldm(4)=   0.000000  celldm(5)=  -0.175986  celldm(6)=   0.000000

     crystal axes: (cart. coord. in units of alat)
               a(1) = (   1.000000   0.000000   0.000000 )
               a(2) = (   0.000000   1.736001   0.000000 )
               a(3) = (  -0.344390   0.000000   1.926379 )

     reciprocal axes: (cart. coord. in units 2 pi/alat)
               b(1) = (  1.000000 -0.000000  0.178776 )
               b(2) = (  0.000000  0.576037 -0.000000 )
               b(3) = (  0.000000  0.000000  0.519109 )

     PseudoPot. # 1 for Al read from file:
     ./../../../pseudos/Al.pbe-n-kjpaw_psl.1.0.0.UPF
     MD5 check sum: 502b6b27b9c6270cab5dd1084b96fa6d
     Pseudo is Projector augmented-wave + core cor, Zval =  3.0
     Generated using &quot;atomic&quot; code by A. Dal Corso  v.6.3
     Shape of augmentation charge: PSQ
     Using radial grid of 1135 points,  6 beta functions with:
                l(1) =   0
                l(2) =   0
                l(3) =   1
                l(4) =   1
                l(5) =   2
                l(6) =   2
     Q(r) pseudized with 0 coefficients

     PseudoPot. # 2 for Ti read from file:
     ./../../../pseudos/Ti.pbe-spn-kjpaw_psl.1.0.0.UPF
     MD5 check sum: 01f69b0d8ba4438b2e03ac6ea4af1c0b
     Pseudo is Projector augmented-wave + core cor, Zval = 12.0
     Generated using &quot;atomic&quot; code by A. Dal Corso  v.6.2.2
     Shape of augmentation charge: PSQ
     Using radial grid of 1177 points,  6 beta functions with:
                l(1) =   0
                l(2) =   0
                l(3) =   1
                l(4) =   1
                l(5) =   2
                l(6) =   2
     Q(r) pseudized with 0 coefficients

     PseudoPot. # 3 for H  read from file:
     ./../../../pseudos/H.pbe-kjpaw_psl.1.0.0.UPF
     MD5 check sum: d81a744832360e4a8af0b0b5b123bc2a
     Pseudo is Projector augmented-wave, Zval =  1.0
     Generated using &quot;atomic&quot; code by A. Dal Corso  v.6.3MaX
     Shape of augmentation charge: PSQ
     Using radial grid of  929 points,  2 beta functions with:
                l(1) =   0
                l(2) =   0
     Q(r) pseudized with 0 coefficients

     PseudoPot. # 4 for K  read from file:
     ./../../../pseudos/K.pbe-spn-kjpaw_psl.1.0.0.UPF
     MD5 check sum: 34cc42130a09071ebe376fd42eb21491
     Pseudo is Projector augmented-wave + core cor, Zval =  9.0
     Generated using &quot;atomic&quot; code by A. Dal Corso  v.6.2.2
     Shape of augmentation charge: PSQ
     Using radial grid of 1165 points,  6 beta functions with:
                l(1) =   0
                l(2) =   0
                l(3) =   1
                l(4) =   1
                l(5) =   2
                l(6) =   2
     Q(r) pseudized with 0 coefficients

     PseudoPot. # 5 for Mg read from file:
     ./../../../pseudos/Mg.pbe-spnl-kjpaw_psl.1.0.0.UPF
     MD5 check sum: fda14e0d92a6a9a5ebed782e5a4b3067
     Pseudo is Projector augmented-wave + core cor, Zval = 10.0
     Generated using &quot;atomic&quot; code by A. Dal Corso  v.6.3
     Shape of augmentation charge: PSQ
     Using radial grid of 1129 points,  4 beta functions with:
                l(1) =   0
                l(2) =   0
                l(3) =   1
                l(4) =   1
     Q(r) pseudized with 0 coefficients

     PseudoPot. # 6 for O  read from file:
     ./../../../pseudos/O.pbe-n-kjpaw_psl.1.0.0.UPF
     MD5 check sum: e99d9cef9b487d1ca56f5b95ecd0fd7a
     Pseudo is Projector augmented-wave + core cor, Zval =  6.0
     Generated using &quot;atomic&quot; code by A. Dal Corso  v.6.3
     Shape of augmentation charge: PSQ
     Using radial grid of 1095 points,  4 beta functions with:
                l(1) =   0
                l(2) =   0
                l(3) =   1
                l(4) =   1
     Q(r) pseudized with 0 coefficients

     PseudoPot. # 7 for Si read from file:
     ./../../../pseudos/Si.pbe-n-kjpaw_psl.1.0.0.UPF
     MD5 check sum: c39c59da582df4a0d9f10159256ea34e
     Pseudo is Projector augmented-wave + core cor, Zval =  4.0
     Generated using &quot;atomic&quot; code by A. Dal Corso  v.6.3
     Shape of augmentation charge: PSQ
     Using radial grid of 1141 points,  6 beta functions with:
                l(1) =   0
                l(2) =   0
                l(3) =   1
                l(4) =   1
                l(5) =   2
                l(6) =   2
     Q(r) pseudized with 0 coefficients

     atomic species   valence    mass     pseudopotential
     Al                3.00    26.98154     Al( 1.00)
     Ti               12.00    47.86700     Ti( 1.00)
     H                 1.00     1.00794     H ( 1.00)
     K                 9.00    39.09830     K ( 1.00)
     Mg               10.00    24.30500     Mg( 1.00)
     O                 6.00    15.99940     O ( 1.00)
     Si                4.00    28.08550     Si( 1.00)

     Starting magnetic structure
     atomic species   magnetization
     Al              0.000
     Ti              0.300
     H               0.000
     K               0.000
     Mg              0.000
     O               0.000
     Si              0.000

      2 Sym. Ops. (no inversion) found

                                    s                        frac. trans.

      isym =  1     identity

 cryst.   s( 1) = (     1          0          0      )
                  (     0          1          0      )
                  (     0          0          1      )

 cart.    s( 1) = (  1.0000000  0.0000000  0.0000000 )
                  (  0.0000000  1.0000000  0.0000000 )
                  (  0.0000000  0.0000000  1.0000000 )

      isym =  2     180 deg rotation - cart. axis [0,1,0]

[...]

     point group C_2  (2)
     there are  2 classes
     the character table:

       E     C2
A      1.00  1.00
B      1.00 -1.00

     the symmetry operations in each class and the name of the first element:

     E        1
          identity
     C2       2
          180 deg rotation - cart. axis [0,1,0]

   Cartesian axes

     site n.     atom                  positions (alat units)
         1        K      tau(   1) = (   0.0000000   0.8711162   0.0000000  )
         2        K      tau(   2) = (   0.5000001   0.0056225   0.0000000  )
         3        Mg     tau(   3) = (  -0.1721948   1.7227405   0.9631892  )
         4        Mg     tau(   4) = (  -0.1721948   1.1494829   0.9631892  )
         5        Mg     tau(   5) = (   0.3278053   0.8508145   0.9631892  )
         6        Mg     tau(   6) = (   0.3278053   1.4584761   0.9631892  )
         7        Si     tau(   7) = (   0.0001217   0.2852960   0.4299756  )
         8        Si     tau(   8) = (   0.6554889   0.2852960   1.4964028  )
         9        Si     tau(   9) = (   0.6725625   1.4451555   1.4777825  )
        10        Si     tau(  10) = (  -0.0169519   1.4451555   0.4485958  )
        11        Si     tau(  11) = (   0.4818748   1.1584370   0.4449665  )
        12        Si     tau(  12) = (   0.1737357   1.1584370   1.4814119  )
        13        Al     tau(  13) = (   0.1449243   0.5769557   1.4930787  )
        14        Al     tau(  14) = (   0.5106862   0.5769557   0.4332997  )
        15        O      tau(  15) = (  -0.0335567   0.2953292   0.7393905  )
        16        O      tau(  16) = (   0.6891673   0.2953292   1.1869878  )
        17        O      tau(  17) = (   0.6643067   1.4315943   1.1744416  )
        18        O      tau(  18) = (  -0.0086961   1.4315943   0.7519367  )
        19        O      tau(  19) = (   0.4902265   1.1515936   0.7513099  )
        20        O      tau(  20) = (   0.1653841   1.1515936   1.1750685  )
        21        O      tau(  21) = (   0.1177712   0.5960407   1.1638019  )
        22        O      tau(  22) = (   0.5378394   0.5960407   0.7625764  )
        23        O      tau(  23) = (   0.2785475   0.3651383   0.3409270  )
        24        O      tau(  24) = (   0.3770630   0.3651383   1.5854513  )
        25        O      tau(  25) = (  -0.0459819   1.7292279   0.3326015  )
        26        O      tau(  26) = (   0.7015925   1.7292279   1.5937768  )
        27        O      tau(  27) = (   0.4110355   1.3262492   1.5953626  )
        28        O      tau(  28) = (   0.2445751   1.3262492   0.3310158  )
        29        O      tau(  29) = (   0.7479319   1.2786368   0.3320345  )
        30        O      tau(  30) = (  -0.0923213   1.2786368   1.5943439  )
        31        O      tau(  31) = (   0.4485115   0.8817816   0.3201199  )
        32        O      tau(  32) = (   0.2070990   0.8817816   1.6062585  )
        33        O      tau(  33) = (  -0.1405076   0.4725090   1.6250117  )
        34        O      tau(  34) = (   0.7961182   0.4725090   0.3013666  )
        35        O      tau(  35) = (  -0.0047955   0.8507362   0.7682388  )
        36        O      tau(  36) = (   0.6604061   0.8507362   1.1581395  )
        37        O      tau(  37) = (   0.5174320   1.7013161   0.7486023  )
        38        O      tau(  38) = (   0.1381786   1.7013161   1.1777761  )
        39        H      tau(  39) = (  -0.0240315   0.8421943   0.5875856  )
        40        H      tau(  40) = (   0.6796422   0.8421943   1.3387926  )
[...]
     atom   40 type  3   force =    -0.16577235    0.19742682   -5.24705953
     atom   41 type  3   force =     1.68625367   -3.07368434    1.56852096
     atom   42 type  3   force =    -1.68626786   -3.07367553   -1.56850442
     atom   43 type  2   force =    -0.00019573    3.82689027    0.00021687
     The core correction contribution to forces
     atom    1 type  4   force =    -0.00000000   -0.00092348    0.00000000
     atom    2 type  4   force =     0.00000098    0.00091727   -0.00000000
     atom    3 type  5   force =    -0.00000140   -0.00031468    0.00000144
     atom    4 type  5   force =    -0.00000140    0.00013551    0.00000143
     atom    5 type  5   force =    -0.00000214   -0.00029968    0.00000143
     atom    6 type  5   force =    -0.00000214    0.00110035    0.00000143
     atom    7 type  7   force =     0.00290936    0.01113475   -0.00142934
     atom    8 type  7   force =    -0.00290816    0.01113474    0.00142875
     atom    9 type  7   force =    -0.00130107   -0.00013305   -0.01398329
     atom   10 type  7   force =     0.00130190   -0.00013299    0.01398246
     atom   11 type  7   force =    -0.00139230   -0.01200414    0.00921559
     atom   12 type  7   force =     0.00139300   -0.01200410   -0.00921619
     atom   13 type  1   force =    -0.00094446   -0.00043049   -0.00390477
     atom   14 type  1   force =     0.00094512   -0.00043049    0.00390439
     atom   15 type  6   force =     0.00162512   -0.00116222    0.00602576
     atom   16 type  6   force =    -0.00162483   -0.00116224   -0.00602572
     atom   17 type  6   force =    -0.00049183   -0.00021900   -0.00701215
     atom   18 type  6   force =     0.00049219   -0.00021904    0.00701211
     atom   19 type  6   force =    -0.00007346   -0.00002367    0.00693215
     atom   20 type  6   force =     0.00007376   -0.00002366   -0.00693219
     atom   21 type  6   force =     0.00145646   -0.00083359   -0.00320974
     atom   22 type  6   force =    -0.00145625   -0.00083360    0.00320959
     atom   23 type  6   force =     0.00463451   -0.00167010   -0.00501919
     atom   24 type  6   force =    -0.00463447   -0.00167000    0.00501899
     atom   25 type  6   force =    -0.00237503    0.00022930   -0.00714503
     atom   26 type  6   force =     0.00237547    0.00022932    0.00714477
     atom   27 type  6   force =    -0.00106588    0.00153337    0.00759286
     atom   28 type  6   force =     0.00106589    0.00153354   -0.00759304
     atom   29 type  6   force =     0.00070157   -0.00180293   -0.00755843
     atom   30 type  6   force =    -0.00070156   -0.00180273    0.00755821
     atom   31 type  6   force =    -0.00222038   -0.00302304   -0.00654669
     atom   32 type  6   force =     0.00222067   -0.00302307    0.00654645
     atom   33 type  6   force =     0.00116787    0.00383127    0.00708862
     atom   34 type  6   force =    -0.00116767    0.00383138   -0.00708889
     atom   35 type  6   force =     0.00220361    0.00116667    0.01104581
     atom   36 type  6   force =    -0.00220306    0.00116671   -0.01104565
     atom   37 type  6   force =     0.00572482   -0.01075262   -0.00218910
     atom   38 type  6   force =    -0.00572448   -0.01075288    0.00218871
     atom   39 type  3   force =     0.00000000    0.00000000    0.00000000
     atom   40 type  3   force =     0.00000000    0.00000000    0.00000000
     atom   41 type  3   force =     0.00000000    0.00000000    0.00000000
     atom   42 type  3   force =     0.00000000    0.00000000    0.00000000
     atom   43 type  2   force =     0.00000469   -0.00025092   -0.00000474
     The Hubbard contrib.    to forces
     atom    1 type  4   force =     0.00000000    0.00000000    0.00000000
     atom    2 type  4   force =     0.00000000    0.00000000    0.00000000
     atom    3 type  5   force =     0.00000000    0.00000000    0.00000000
     atom    4 type  5   force =     0.00000000    0.00000000    0.00000000
     atom    5 type  5   force =     0.00000000    0.00000000    0.00000000
     atom    6 type  5   force =     0.00000000    0.00000000    0.00000000
     atom    7 type  7   force =     0.00000000    0.00000000    0.00000000
     atom    8 type  7   force =     0.00000000    0.00000000    0.00000000
     atom    9 type  7   force =     0.00000000    0.00000000    0.00000000
     atom   10 type  7   force =     0.00000000    0.00000000    0.00000000
     atom   11 type  7   force =     0.00000000    0.00000000    0.00000000
     atom   12 type  7   force =     0.00000000    0.00000000    0.00000000
     atom   13 type  1   force =     0.00000000    0.00000000    0.00000000
     atom   14 type  1   force =     0.00000000    0.00000000    0.00000000
     atom   15 type  6   force =     0.00000000    0.00000000    0.00000000
     atom   16 type  6   force =     0.00000000    0.00000000    0.00000000
     atom   17 type  6   force =     0.00000000    0.00000000    0.00000000
     atom   18 type  6   force =     0.00000000    0.00000000    0.00000000
     atom   19 type  6   force =     0.00000000    0.00000000    0.00000000
     atom   20 type  6   force =     0.00000000    0.00000000    0.00000000
     atom   21 type  6   force =     0.00000000    0.00000000    0.00000000
     atom   22 type  6   force =     0.00000000    0.00000000    0.00000000
     atom   23 type  6   force =     0.00000000    0.00000000    0.00000000
     atom   24 type  6   force =     0.00000000    0.00000000    0.00000000
     atom   25 type  6   force =     0.00000000    0.00000000    0.00000000
     atom   26 type  6   force =     0.00000000    0.00000000    0.00000000
     atom   27 type  6   force =     0.00000000    0.00000000    0.00000000
     atom   28 type  6   force =     0.00000000    0.00000000    0.00000000
     atom   29 type  6   force =     0.00000000    0.00000000    0.00000000
     atom   30 type  6   force =     0.00000000    0.00000000    0.00000000
     atom   31 type  6   force =     0.00000000    0.00000000    0.00000000
     atom   32 type  6   force =     0.00000000    0.00000000    0.00000000
     atom   33 type  6   force =     0.00000000    0.00000000    0.00000000
     atom   34 type  6   force =     0.00000000    0.00000000    0.00000000
     atom   35 type  6   force =     0.00000000    0.00000000    0.00000000
     atom   36 type  6   force =     0.00000000    0.00000000    0.00000000
     atom   37 type  6   force =     0.00000000    0.00000000    0.00000000
     atom   38 type  6   force =     0.00000000    0.00000000    0.00000000
     atom   39 type  3   force =     0.00000000    0.00000000    0.00000000
     atom   40 type  3   force =     0.00000000    0.00000000    0.00000000
     atom   41 type  3   force =     0.00000000    0.00000000    0.00000000
     atom   42 type  3   force =     0.00000000    0.00000000    0.00000000
     atom   43 type  2   force =     0.00000000    0.00000000    0.00000000
     The SCF correction term to forces
     atom    1 type  4   force =    -0.00000000    0.00000308    0.00000000
     atom    2 type  4   force =     0.00000000   -0.00000204    0.00000000
     atom    3 type  5   force =     0.00000000   -0.00001185    0.00000000
     atom    4 type  5   force =     0.00000000    0.00000991   -0.00000000
     atom    5 type  5   force =    -0.00000000    0.00001900    0.00000000
     atom    6 type  5   force =    -0.00000000   -0.00004712    0.00000000
     atom    7 type  7   force =    -0.00000038   -0.00000667   -0.00000591
     atom    8 type  7   force =     0.00000038   -0.00000667    0.00000591
     atom    9 type  7   force =    -0.00000177    0.00000303   -0.00000750
     atom   10 type  7   force =     0.00000177    0.00000303    0.00000750
     atom   11 type  7   force =    -0.00000115   -0.00000073    0.00000310
     atom   12 type  7   force =     0.00000115   -0.00000073   -0.00000311
     atom   13 type  1   force =     0.00000103    0.00000125    0.00000317
     atom   14 type  1   force =    -0.00000103    0.00000125   -0.00000317
     atom   15 type  6   force =     0.00000248    0.00000473    0.00000366
     atom   16 type  6   force =    -0.00000248    0.00000473   -0.00000366
     atom   17 type  6   force =    -0.00000443   -0.00001073   -0.00004501
     atom   18 type  6   force =     0.00000443   -0.00001073    0.00004501
     atom   19 type  6   force =    -0.00000406   -0.00000663    0.00004182
     atom   20 type  6   force =     0.00000406   -0.00000663   -0.00004182
     atom   21 type  6   force =     0.00000505    0.00000635    0.00000730
     atom   22 type  6   force =    -0.00000505    0.00000635   -0.00000730
     atom   23 type  6   force =     0.00000032    0.00000640   -0.00000145
     atom   24 type  6   force =    -0.00000032    0.00000640    0.00000145
     atom   25 type  6   force =    -0.00000078    0.00000800   -0.00002875
     atom   26 type  6   force =     0.00000077    0.00000800    0.00002875
     atom   27 type  6   force =     0.00000438   -0.00000106    0.00002502
     atom   28 type  6   force =    -0.00000438   -0.00000106   -0.00002502
     atom   29 type  6   force =     0.00000620   -0.00000687   -0.00002453
     atom   30 type  6   force =    -0.00000620   -0.00000687    0.00002453
     atom   31 type  6   force =    -0.00000110   -0.00001483   -0.00000551
     atom   32 type  6   force =     0.00000110   -0.00001483    0.00000551
     atom   33 type  6   force =    -0.00000133    0.00000269   -0.00000110
     atom   34 type  6   force =     0.00000133    0.00000269    0.00000110
     atom   35 type  6   force =     0.00000407    0.00000628    0.00000399
     atom   36 type  6   force =    -0.00000407    0.00000628   -0.00000399
     atom   37 type  6   force =    -0.00000779    0.00000717    0.00001444
     atom   38 type  6   force =     0.00000779    0.00000717   -0.00001444
     atom   39 type  3   force =     0.00000029    0.00000018   -0.00000004
     atom   40 type  3   force =    -0.00000029    0.00000018    0.00000004
     atom   41 type  3   force =    -0.00000307    0.00000507    0.00000052
     atom   42 type  3   force =     0.00000307    0.00000507   -0.00000052
     atom   43 type  2   force =    -0.00000000    0.00000535    0.00000000

     DFT-D3 dispersion contribution to forces:
     atom    1 type  4   force =     0.00000001    0.00054127   -0.00000000
     atom    2 type  4   force =     0.00000000   -0.00114474   -0.00000000
     atom    3 type  5   force =    -0.00000000    0.00017199   -0.00000000
     atom    4 type  5   force =    -0.00000000   -0.00087451   -0.00000000
     atom    5 type  5   force =     0.00000000   -0.00124513   -0.00000000
     atom    6 type  5   force =     0.00000000    0.00142812   -0.00000000
     atom    7 type  7   force =     0.00072071   -0.00004400    0.00055364
     atom    8 type  7   force =    -0.00072070   -0.00004400   -0.00055364
     atom    9 type  7   force =    -0.00003957   -0.00034548    0.00052078
     atom   10 type  7   force =     0.00003957   -0.00034548   -0.00052078
     atom   11 type  7   force =    -0.00013241    0.00000768   -0.00045345
     atom   12 type  7   force =     0.00013241    0.00000768    0.00045345
     atom   13 type  1   force =     0.00066348   -0.00018865   -0.00169002
     atom   14 type  1   force =    -0.00066348   -0.00018865    0.00169002
     atom   15 type  6   force =     0.00044852   -0.00009911    0.00059334
     atom   16 type  6   force =    -0.00044852   -0.00009911   -0.00059334
     atom   17 type  6   force =    -0.00004750   -0.00008906   -0.00039122
     atom   18 type  6   force =     0.00004750   -0.00008906    0.00039122
     atom   19 type  6   force =    -0.00000482   -0.00012953    0.00035456
     atom   20 type  6   force =     0.00000482   -0.00012953   -0.00035456
     atom   21 type  6   force =     0.00049436   -0.00023134   -0.00003060
     atom   22 type  6   force =    -0.00049436   -0.00023134    0.00003060
     atom   23 type  6   force =    -0.00017151    0.00110977    0.00052610
     atom   24 type  6   force =     0.00017151    0.00110977   -0.00052610
     atom   25 type  6   force =     0.00078265    0.00000903    0.00016823
     atom   26 type  6   force =    -0.00078266    0.00000903   -0.00016823
     atom   27 type  6   force =     0.00018034   -0.00035287   -0.00017991
     atom   28 type  6   force =    -0.00018035   -0.00035287    0.00017991
     atom   29 type  6   force =    -0.00026969    0.00027533    0.00013406
     atom   30 type  6   force =     0.00026969    0.00027533   -0.00013405
     atom   31 type  6   force =     0.00090840   -0.00041260    0.00032875
     atom   32 type  6   force =    -0.00090841   -0.00041260   -0.00032875
     atom   33 type  6   force =     0.00062795   -0.00043074   -0.00015189
     atom   34 type  6   force =    -0.00062795   -0.00043074    0.00015189
     atom   35 type  6   force =     0.00015995    0.00037149   -0.00068339
     atom   36 type  6   force =    -0.00015995    0.00037149    0.00068339
     atom   37 type  6   force =    -0.00048640    0.00038712   -0.00015452
     atom   38 type  6   force =     0.00048640    0.00038712    0.00015452
     atom   39 type  3   force =     0.00025087    0.00041483   -0.00036155
     atom   40 type  3   force =    -0.00025087    0.00041483    0.00036155
     atom   41 type  3   force =    -0.00051872    0.00082099   -0.00010184
     atom   42 type  3   force =     0.00051872    0.00082099    0.00010184
     atom   43 type  2   force =    -0.00000000   -0.00102274   -0.00000000

     Total force =     0.002417     Total SCF correction =     0.000132

     DFT-D3 dispersion Force =     0.005668

     Computing stress (Cartesian axis) and pressure

          total   stress  (Ry/bohr**3)                   (kbar)     P=       -0.15
  -0.00000302   0.00000000   0.00000064           -0.44        0.00        0.09
   0.00000000  -0.00000133   0.00000000            0.00       -0.19        0.00
   0.00000064   0.00000000   0.00000127            0.09        0.00        0.19

     kinetic stress (kbar)  18491.07      0.00    -15.65
                                0.00  18368.20      0.00
                              -15.65      0.00  18367.32

     local   stress (kbar) -27836.69     -0.00   -148.74
                               -0.00 -27677.73      0.00
                             -148.74      0.00   5778.65

     nonloc. stress (kbar)   3890.35      0.00     -5.79
                                0.00   3892.17      0.00
                               -5.79      0.00   3879.65

     hartree stress (kbar)  15636.18      0.00     12.02
                                0.00  15482.36      0.00
                               12.02      0.00   -756.10

     exc-cor stress (kbar)  -2354.12      0.00      1.25
                                0.00  -2353.60      0.00
                                1.25      0.00  -2354.02

     corecor stress (kbar)  -1980.43     -0.00     -0.26
                               -0.00  -1979.89     -0.00
                               -0.26     -0.00  -1980.49

     ewald   stress (kbar)  -5832.38     -0.00    157.25
                               -0.00  -5717.78     -0.00
                              157.25     -0.00 -22923.25

     hubbard stress (kbar)      0.00      0.00      0.00
                                0.00      0.00      0.00
                                0.00      0.00      0.00

     DFT-D   stress (kbar)    -14.43      0.00      0.02
                                0.00    -13.91      0.00
                                0.02      0.00    -11.59

     XDM     stress (kbar)      0.00      0.00      0.00
                                0.00      0.00      0.00
                                0.00      0.00      0.00

     dft-nl  stress (kbar)      0.00      0.00      0.00
                                0.00      0.00      0.00
                                0.00      0.00      0.00

     TS-vdW  stress (kbar)      0.00      0.00      0.00
                                0.00      0.00      0.00
                                0.00      0.00      0.00

     MDB     stress (kbar)      0.00      0.00      0.00
                                0.00      0.00      0.00
                                0.00      0.00      0.00

     3D-RISM stress (kbar)      0.00      0.00      0.00
                                0.00      0.00      0.00
                                0.00      0.00      0.00

     Writing all to output data dir ./temp/phl-ti1-ti2-v6.save/ :
     XML data file, charge density, pseudopotentials, collected wavefunctions

     General routines

     Parallel routines

     PAW routines

   This run was terminated on:  11:24:58   2Apr2025

   JOB DONE.