     Program PWSCF v.7.3.1 starts on 14Feb2025 at 10:14:49

     Reading input from vc_relax.in

     Current dimensions of program PWSCF are:
     Max number of different atomic species (ntypx) = 10
     Max number of k-points (npk) =  40000
     Max angular momentum in pseudopotentials (lmaxx) =  4
     file Al.pbe-n-kjpaw_psl.1.0.0.UPF: wavefunction(s)  3S 3P renormalized
     file Fe.pbe-spn-kjpaw_psl.1.0.0.UPF: wavefunction(s)  3P 3D renormalized
     file Fe.pbe-spn-kjpaw_psl.1.0.0.UPF: wavefunction(s)  3P 3D renormalized
     file H.pbe-kjpaw_psl.1.0.0.UPF: wavefunction(s)  1S renormalized
     file K.pbe-spn-kjpaw_psl.1.0.0.UPF: wavefunction(s)  3S renormalized
     file Mg.pbe-spnl-kjpaw_psl.1.0.0.UPF: wavefunction(s)  2P renormalized
     file O.pbe-n-kjpaw_psl.1.0.0.UPF: wavefunction(s)  2S 2P renormalized
     file Si.pbe-n-kjpaw_psl.1.0.0.UPF: wavefunction(s)  3S 3P renormalized

     R & G space division:  proc/nbgrp/npool/nimage =       6
     Subspace diagonalization in iterative solution of the eigenvalue problem:
     one sub-group per band group will be used

     Using Slab Decomposition

     bravais-lattice index     =          -12
     lattice parameter (alat)  =      20.1351  a.u.
     unit-cell volume          =    6828.4878 (a.u.)^3
     number of atoms/cell      =           88
     number of atomic types    =            8
     number of electrons       =       524.00
     number of Kohn-Sham states=          314
     kinetic-energy cutoff     =      60.0000  Ry
     charge density cutoff     =     480.0000  Ry
     scf convergence threshold =      1.0E-06
     mixing beta               =       0.7000
     number of iterations used =            8  plain     mixing
     energy convergence thresh.=      1.0E-06
     force convergence thresh. =      1.0E-03
     press convergence thresh. =      5.0E-01
     Exchange-correlation= SLA  PW   PBX  PBC
                           (   1   4   3   4   0   0   0)
     nstep                     =           50

     celldm(1)=  20.135087  celldm(2)=   0.869801  celldm(3)=   0.977339
     celldm(4)=   0.000000  celldm(5)=  -0.178119  celldm(6)=   0.000000

     crystal axes: (cart. coord. in units of alat)
               a(1) = (   1.000000   0.000000   0.000000 )
               a(2) = (   0.000000   0.869801   0.000000 )
               a(3) = (  -0.174083   0.000000   0.961710 )

     reciprocal axes: (cart. coord. in units 2 pi/alat)
               b(1) = (  1.000000 -0.000000  0.181014 )
               b(2) = (  0.000000  1.149688 -0.000000 )
               b(3) = (  0.000000  0.000000  1.039814 )

     PseudoPot. # 1 for Al read from file:
     ./../../../pseudos/Al.pbe-n-kjpaw_psl.1.0.0.UPF
     MD5 check sum: 502b6b27b9c6270cab5dd1084b96fa6d
     Pseudo is Projector augmented-wave + core cor, Zval =  3.0
     Generated using &quot;atomic&quot; code by A. Dal Corso  v.6.3
     Shape of augmentation charge: PSQ
     Using radial grid of 1135 points,  6 beta functions with:
                l(1) =   0
                l(2) =   0
                l(3) =   1
                l(4) =   1
                l(5) =   2
                l(6) =   2
     Q(r) pseudized with 0 coefficients

     PseudoPot. # 2 for Fe read from file:
     ./../../../pseudos/Fe.pbe-spn-kjpaw_psl.1.0.0.UPF
     MD5 check sum: fc81f059e5c5069939230b1155715ae8
     Pseudo is Projector augmented-wave + core cor, Zval = 16.0
     Generated using &quot;atomic&quot; code by A. Dal Corso  v.6.3
     Shape of augmentation charge: PSQ
     Using radial grid of 1191 points,  6 beta functions with:
                l(1) =   0
                l(2) =   0
                l(3) =   1
                l(4) =   1
                l(5) =   2
                l(6) =   2
     Q(r) pseudized with 0 coefficients

[...]

     PseudoPot. # 4 for H  read from file:
     ./../../../pseudos/H.pbe-kjpaw_psl.1.0.0.UPF
     MD5 check sum: d81a744832360e4a8af0b0b5b123bc2a
     Pseudo is Projector augmented-wave, Zval =  1.0
     Generated using &quot;atomic&quot; code by A. Dal Corso  v.6.3MaX
     Shape of augmentation charge: PSQ
     Using radial grid of  929 points,  2 beta functions with:
                l(1) =   0
                l(2) =   0
     Q(r) pseudized with 0 coefficients

     PseudoPot. # 5 for K  read from file:
     ./../../../pseudos/K.pbe-spn-kjpaw_psl.1.0.0.UPF
     MD5 check sum: 34cc42130a09071ebe376fd42eb21491
     Pseudo is Projector augmented-wave + core cor, Zval =  9.0
     Generated using &quot;atomic&quot; code by A. Dal Corso  v.6.2.2
     Shape of augmentation charge: PSQ
     Using radial grid of 1165 points,  6 beta functions with:
                l(1) =   0
                l(2) =   0
                l(3) =   1
                l(4) =   1
                l(5) =   2
                l(6) =   2
     Q(r) pseudized with 0 coefficients

     PseudoPot. # 6 for Mg read from file:
     ./../../../pseudos/Mg.pbe-spnl-kjpaw_psl.1.0.0.UPF
     MD5 check sum: fda14e0d92a6a9a5ebed782e5a4b3067
     Pseudo is Projector augmented-wave + core cor, Zval = 10.0
     Generated using &quot;atomic&quot; code by A. Dal Corso  v.6.3
     Shape of augmentation charge: PSQ
     Using radial grid of 1129 points,  4 beta functions with:
                l(1) =   0
                l(2) =   0
                l(3) =   1
                l(4) =   1
     Q(r) pseudized with 0 coefficients

     PseudoPot. # 7 for O  read from file:
     ./../../../pseudos/O.pbe-n-kjpaw_psl.1.0.0.UPF
     MD5 check sum: e99d9cef9b487d1ca56f5b95ecd0fd7a
     Pseudo is Projector augmented-wave + core cor, Zval =  6.0
     Generated using &quot;atomic&quot; code by A. Dal Corso  v.6.3
     Shape of augmentation charge: PSQ
     Using radial grid of 1095 points,  4 beta functions with:
                l(1) =   0
                l(2) =   0
                l(3) =   1
                l(4) =   1
     Q(r) pseudized with 0 coefficients

     PseudoPot. # 8 for Si read from file:
     ./../../../pseudos/Si.pbe-n-kjpaw_psl.1.0.0.UPF
     MD5 check sum: c39c59da582df4a0d9f10159256ea34e
     Pseudo is Projector augmented-wave + core cor, Zval =  4.0
     Generated using &quot;atomic&quot; code by A. Dal Corso  v.6.3
     Shape of augmentation charge: PSQ
     Using radial grid of 1141 points,  6 beta functions with:
                l(1) =   0
                l(2) =   0
                l(3) =   1
                l(4) =   1
                l(5) =   2
                l(6) =   2
     Q(r) pseudized with 0 coefficients

     atomic species   valence    mass     pseudopotential
     Al                3.00    26.98154     Al( 1.00)
     Fe1              16.00    55.84500     Fe( 1.00)
     Fe2              16.00    55.84500     Fe( 1.00)
     H                 1.00     1.00794     H ( 1.00)
     K                 9.00    39.09830     K ( 1.00)
     Mg               10.00    24.30500     Mg( 1.00)
     O                 6.00    15.99940     O ( 1.00)
     Si                4.00    28.08550     Si( 1.00)

     Starting magnetic structure
     atomic species   magnetization
     Al              0.000
     Fe1             0.300
     Fe2             0.300
     H               0.000
     K               0.000
     Mg              0.000
     O               0.000
     Si              0.000

      2 Sym. Ops. (no inversion) found

                                    s                        frac. trans.

      isym =  1     identity

 cryst.   s( 1) = (     1          0          0      )
                  (     0          1          0      )
                  (     0          0          1      )

 cart.    s( 1) = (  1.0000000  0.0000000  0.0000000 )
                  (  0.0000000  1.0000000  0.0000000 )
                  (  0.0000000  0.0000000  1.0000000 )

      isym =  2     180 deg rotation - cart. axis [0,1,0]

[...]

     point group C_2  (2)
     there are  2 classes
     the character table:

       E     C2
A      1.00  1.00
B      1.00 -1.00

     the symmetry operations in each class and the name of the first element:

     E        1
          identity
     C2       2
          180 deg rotation - cart. axis [0,1,0]

   Cartesian axes

     site n.     atom                  positions (alat units)
         1        K      tau(   1) = (   0.0000000   0.4296389   0.0000000  )
         2        K      tau(   2) = (   0.5000000   0.4296389   0.0000000  )
         3        K      tau(   3) = (   0.2500001   0.0024501   0.0000000  )
         4        K      tau(   4) = (   0.7500001   0.0024501   0.0000000  )
         5        Mg     tau(   5) = (  -0.0870414   0.0055279   0.4808550  )
         6        Mg     tau(   6) = (   0.4129586   0.0055279   0.4808550  )
         7        Mg     tau(   7) = (  -0.0870414   0.5801280   0.4808550  )
         8        Mg     tau(   8) = (   0.4129586   0.5801280   0.4808550  )
         9        Mg     tau(   9) = (   0.1629587   0.4310949   0.4808550  )
        10        Mg     tau(  10) = (   0.6629587   0.4310949   0.4808550  )
        11        Mg     tau(  11) = (   0.1629587   0.7269300   0.4808550  )
        12        Mg     tau(  12) = (   0.6629587   0.7269300   0.4808550  )
        13        Mg     tau(  13) = (   0.1629587   0.1482588   0.4808550  )
        14        Mg     tau(  14) = (   0.6629587   0.1482588   0.4808550  )
        15        Si     tau(  15) = (   0.0074326   0.1420119   0.2164892  )
        16        Si     tau(  16) = (   0.5074326   0.1420119   0.2164892  )
        17        Si     tau(  17) = (   0.3184849   0.1420119   0.7452208  )
        18        Si     tau(  18) = (   0.8184849   0.1420119   0.7452208  )
        19        Si     tau(  19) = (   0.3331608   0.7257911   0.7377580  )
        20        Si     tau(  20) = (   0.8331608   0.7257911   0.7377580  )
        21        Si     tau(  21) = (  -0.0072433   0.7257911   0.2239520  )
        22        Si     tau(  22) = (   0.4927567   0.7257911   0.2239520  )
        23        Si     tau(  23) = (   0.2427667   0.5796705   0.2225784  )
        24        Si     tau(  24) = (   0.7427667   0.5796705   0.2225784  )
        25        Si     tau(  25) = (   0.0831508   0.5796705   0.7391315  )
        26        Si     tau(  26) = (   0.5831508   0.5796705   0.7391315  )
        27        Al     tau(  27) = (   0.0682443   0.2875617   0.7425041  )
        28        Al     tau(  28) = (   0.5682443   0.2875617   0.7425041  )
        29        Al     tau(  29) = (   0.2576732   0.2875617   0.2192058  )
        30        Al     tau(  30) = (   0.7576731   0.2875617   0.2192058  )
        31        O      tau(  31) = (   0.0017352   0.1371008   0.3693886  )
        32        O      tau(  32) = (   0.5017352   0.1371008   0.3693886  )
        33        O      tau(  33) = (   0.3241823   0.1371008   0.5923214  )
        34        O      tau(  34) = (   0.8241823   0.1371008   0.5923214  )
        35        O      tau(  35) = (   0.3309875   0.7260882   0.5856762  )
        36        O      tau(  36) = (   0.8309875   0.7260882   0.5856762  )
        37        O      tau(  37) = (  -0.0050700   0.7260882   0.3760337  )
        38        O      tau(  38) = (   0.4949300   0.7260882   0.3760337  )
[...]
     atom   49 type  7   force =     0.00000000    0.00000000    0.00000000
     atom   50 type  7   force =     0.00000000    0.00000000    0.00000000
     atom   51 type  7   force =     0.00000000    0.00000000    0.00000000
     atom   52 type  7   force =     0.00000000    0.00000000    0.00000000
     atom   53 type  7   force =     0.00000000    0.00000000    0.00000000
     atom   54 type  7   force =     0.00000000    0.00000000    0.00000000
     atom   55 type  7   force =     0.00000000    0.00000000    0.00000000
     atom   56 type  7   force =     0.00000000    0.00000000    0.00000000
     atom   57 type  7   force =     0.00000000    0.00000000    0.00000000
     atom   58 type  7   force =     0.00000000    0.00000000    0.00000000
     atom   59 type  7   force =     0.00000000    0.00000000    0.00000000
     atom   60 type  7   force =     0.00000000    0.00000000    0.00000000
[...]
     atom   74 type  7   force =     0.00000000    0.00000000    0.00000000
     atom   75 type  7   force =     0.00000000    0.00000000    0.00000000
     atom   76 type  7   force =     0.00000000    0.00000000    0.00000000
     atom   77 type  7   force =     0.00000000    0.00000000    0.00000000
     atom   78 type  7   force =     0.00000000    0.00000000    0.00000000
     atom   79 type  4   force =     0.00000000    0.00000000    0.00000000
     atom   80 type  4   force =     0.00000000    0.00000000    0.00000000
     atom   81 type  4   force =     0.00000000    0.00000000    0.00000000
     atom   82 type  4   force =     0.00000000    0.00000000    0.00000000
     atom   83 type  4   force =     0.00000000    0.00000000    0.00000000
     atom   84 type  4   force =     0.00000000    0.00000000    0.00000000
     atom   85 type  4   force =     0.00000000    0.00000000    0.00000000
     atom   86 type  4   force =     0.00000000    0.00000000    0.00000000
     atom   87 type  2   force =     0.00000000    0.00000000    0.00000000
     atom   88 type  3   force =     0.00000000    0.00000000    0.00000000
     The SCF correction term to forces
     atom    1 type  5   force =    -0.00000000   -0.00000036   -0.00000000
     atom    2 type  5   force =    -0.00000000    0.00000631    0.00000000
     atom    3 type  5   force =    -0.00000783   -0.00000334   -0.00000221
     atom    4 type  5   force =     0.00000783   -0.00000334    0.00000221
     atom    5 type  6   force =    -0.00000000    0.00000183    0.00000000
     atom    6 type  6   force =     0.00000000   -0.00002710    0.00000000
     atom    7 type  6   force =     0.00000000   -0.00000503    0.00000000
     atom    8 type  6   force =     0.00000000    0.00000370   -0.00000000
     atom    9 type  6   force =    -0.00001770    0.00002035   -0.00000624
     atom   10 type  6   force =     0.00001770    0.00002035    0.00000624
     atom   11 type  6   force =     0.00000109   -0.00000743   -0.00000466
     atom   12 type  6   force =    -0.00000109   -0.00000743    0.00000466
     atom   13 type  6   force =    -0.00002996   -0.00001317   -0.00000116
     atom   14 type  6   force =     0.00002996   -0.00001317    0.00000116
     atom   15 type  8   force =    -0.00000339    0.00000200    0.00000103
     atom   16 type  8   force =     0.00000377   -0.00000332   -0.00000540
     atom   17 type  8   force =    -0.00000377   -0.00000332    0.00000540
     atom   18 type  8   force =     0.00000339    0.00000200   -0.00000103
     atom   19 type  8   force =    -0.00000011   -0.00000252   -0.00000237
     atom   20 type  8   force =    -0.00000004   -0.00000097    0.00000141
     atom   21 type  8   force =     0.00000004   -0.00000097   -0.00000141
     atom   22 type  8   force =     0.00000011   -0.00000252    0.00000237
     atom   23 type  8   force =    -0.00000289   -0.00000022    0.00000325
     atom   24 type  8   force =     0.00000223   -0.00000110    0.00000094
     atom   25 type  8   force =    -0.00000223   -0.00000110   -0.00000094
     atom   26 type  8   force =     0.00000289   -0.00000022   -0.00000325
     atom   27 type  1   force =    -0.00000423    0.00000102    0.00000171
     atom   28 type  1   force =     0.00000510    0.00000318    0.00000985
     atom   29 type  1   force =    -0.00000510    0.00000318   -0.00000985
     atom   30 type  1   force =     0.00000423    0.00000102   -0.00000171
     atom   31 type  7   force =    -0.00000315    0.00000403   -0.00000398
     atom   32 type  7   force =     0.00000870   -0.00001159   -0.00001027
     atom   33 type  7   force =    -0.00000870   -0.00001159    0.00001027
     atom   34 type  7   force =     0.00000315    0.00000403    0.00000398
     atom   35 type  7   force =    -0.00000139   -0.00000798   -0.00000267
     atom   36 type  7   force =    -0.00000141   -0.00000224    0.00000358
     atom   37 type  7   force =     0.00000141   -0.00000224   -0.00000358
     atom   38 type  7   force =     0.00000139   -0.00000798    0.00000267
     atom   39 type  7   force =    -0.00000479    0.00000014    0.00000139
     atom   40 type  7   force =     0.00000066   -0.00000226    0.00000133
     atom   41 type  7   force =    -0.00000066   -0.00000226   -0.00000133
     atom   42 type  7   force =     0.00000479    0.00000014   -0.00000139
     atom   43 type  7   force =    -0.00000975    0.00000392    0.00000283
     atom   44 type  7   force =     0.00003480    0.00001239    0.00002454
     atom   45 type  7   force =    -0.00003480    0.00001239   -0.00002454
     atom   46 type  7   force =     0.00000975    0.00000392   -0.00000283
     atom   47 type  7   force =    -0.00001190    0.00000562    0.00000322
     atom   48 type  7   force =     0.00001269    0.00000180   -0.00000304
     atom   49 type  7   force =    -0.00001269    0.00000180    0.00000304
     atom   50 type  7   force =     0.00001190    0.00000562   -0.00000322
     atom   51 type  7   force =     0.00000012    0.00000228    0.00000076
     atom   52 type  7   force =    -0.00000035   -0.00000804   -0.00000136
     atom   53 type  7   force =     0.00000035   -0.00000804    0.00000136
     atom   54 type  7   force =    -0.00000012    0.00000228   -0.00000076
     atom   55 type  7   force =    -0.00000244   -0.00000248   -0.00000247
     atom   56 type  7   force =     0.00000147   -0.00000361   -0.00000194
     atom   57 type  7   force =    -0.00000147   -0.00000361    0.00000194
     atom   58 type  7   force =     0.00000244   -0.00000248    0.00000247
     atom   59 type  7   force =    -0.00000282   -0.00000152    0.00000255
     atom   60 type  7   force =     0.00000196   -0.00000292    0.00000113
[...]
     atom   74 type  7   force =    -0.00000344   -0.00000029    0.00000454
     atom   75 type  7   force =    -0.00000878   -0.00001145   -0.00000137
     atom   76 type  7   force =     0.00000552   -0.00000241    0.00000152
     atom   77 type  7   force =    -0.00000552   -0.00000241   -0.00000152
     atom   78 type  7   force =     0.00000878   -0.00001145    0.00000137
     atom   79 type  4   force =     0.00000028   -0.00000010   -0.00000039
     atom   80 type  4   force =     0.00000036    0.00000247    0.00000326
     atom   81 type  4   force =    -0.00000036    0.00000247   -0.00000326
     atom   82 type  4   force =    -0.00000028   -0.00000010    0.00000039
     atom   83 type  4   force =    -0.00000112   -0.00000141    0.00000029
     atom   84 type  4   force =     0.00000087   -0.00000022   -0.00000020
     atom   85 type  4   force =    -0.00000087   -0.00000022    0.00000020
     atom   86 type  4   force =     0.00000112   -0.00000141   -0.00000029
     atom   87 type  2   force =     0.00000000    0.00000518   -0.00000000
     atom   88 type  3   force =     0.00000000    0.00005023   -0.00000000

     DFT-D3 dispersion contribution to forces:
     atom    1 type  5   force =     0.00000001    0.00118982   -0.00000000
     atom    2 type  5   force =     0.00000001    0.00119015   -0.00000000
     atom    3 type  5   force =     0.00000002   -0.00079326    0.00000012
     atom    4 type  5   force =    -0.00000001   -0.00079326   -0.00000012
     atom    5 type  6   force =    -0.00000001    0.00045028    0.00000000
     atom    6 type  6   force =    -0.00000000    0.00045025    0.00000000
     atom    7 type  6   force =    -0.00000001   -0.00130795   -0.00000000
     atom    8 type  6   force =    -0.00000001   -0.00130791   -0.00000000
     atom    9 type  6   force =     0.00000022   -0.00049062   -0.00000015
     atom   10 type  6   force =    -0.00000021   -0.00049062    0.00000015
     atom   11 type  6   force =     0.00000040    0.00113643    0.00000007
     atom   12 type  6   force =    -0.00000039    0.00113643   -0.00000007
     atom   13 type  6   force =     0.00000042   -0.00032719    0.00000006
     atom   14 type  6   force =    -0.00000041   -0.00032719   -0.00000006
     atom   15 type  8   force =    -0.00003915   -0.00005188   -0.00012242
     atom   16 type  8   force =    -0.00003925   -0.00005186   -0.00012237
     atom   17 type  8   force =     0.00003926   -0.00005186    0.00012237
     atom   18 type  8   force =     0.00003915   -0.00005188    0.00012243
     atom   19 type  8   force =     0.00004960    0.00002049    0.00025775
     atom   20 type  8   force =     0.00004954    0.00002046    0.00025785
     atom   21 type  8   force =    -0.00004953    0.00002046   -0.00025785
     atom   22 type  8   force =    -0.00004959    0.00002049   -0.00025775
     atom   23 type  8   force =     0.00001548    0.00025876   -0.00025590
     atom   24 type  8   force =     0.00001545    0.00025876   -0.00025596
     atom   25 type  8   force =    -0.00001545    0.00025876    0.00025596
     atom   26 type  8   force =    -0.00001548    0.00025876    0.00025590
     atom   27 type  1   force =    -0.00019974    0.00003788   -0.00102246
     atom   28 type  1   force =    -0.00019970    0.00003796   -0.00102254
     atom   29 type  1   force =     0.00019970    0.00003796    0.00102254
     atom   30 type  1   force =     0.00019974    0.00003788    0.00102246
     atom   31 type  7   force =    -0.00005539    0.00012448    0.00050005
     atom   32 type  7   force =    -0.00005533    0.00012451    0.00050011
     atom   33 type  7   force =     0.00005533    0.00012451   -0.00050011
     atom   34 type  7   force =     0.00005539    0.00012448   -0.00050005
     atom   35 type  7   force =     0.00000348    0.00000456   -0.00039159
     atom   36 type  7   force =     0.00000356    0.00000458   -0.00039171
     atom   37 type  7   force =    -0.00000356    0.00000458    0.00039170
     atom   38 type  7   force =    -0.00000348    0.00000456    0.00039159
     atom   39 type  7   force =    -0.00002096   -0.00000183    0.00039637
     atom   40 type  7   force =    -0.00002092   -0.00000183    0.00039636
     atom   41 type  7   force =     0.00002092   -0.00000183   -0.00039636
     atom   42 type  7   force =     0.00002096   -0.00000183   -0.00039637
     atom   43 type  7   force =    -0.00007904   -0.00001463    0.00002646
     atom   44 type  7   force =    -0.00007904   -0.00001470    0.00002642
     atom   45 type  7   force =     0.00007904   -0.00001470   -0.00002642
     atom   46 type  7   force =     0.00007904   -0.00001463   -0.00002646
     atom   47 type  7   force =    -0.00020106    0.00103055    0.00025944
     atom   48 type  7   force =    -0.00020104    0.00103055    0.00025946
     atom   49 type  7   force =     0.00020104    0.00103055   -0.00025946
     atom   50 type  7   force =     0.00020106    0.00103055   -0.00025944
     atom   51 type  7   force =     0.00087743    0.00006655    0.00021200
     atom   52 type  7   force =     0.00087736    0.00006654    0.00021195
     atom   53 type  7   force =    -0.00087736    0.00006654   -0.00021195
     atom   54 type  7   force =    -0.00087744    0.00006655   -0.00021200
     atom   55 type  7   force =     0.00032029   -0.00044410    0.00002180
     atom   56 type  7   force =     0.00032025   -0.00044396    0.00002186
     atom   57 type  7   force =    -0.00032026   -0.00044396   -0.00002186
     atom   58 type  7   force =    -0.00032029   -0.00044410   -0.00002180
     atom   59 type  7   force =    -0.00013028    0.00019503   -0.00005406
     atom   60 type  7   force =    -0.00013034    0.00019514   -0.00005390
[...]
     atom   74 type  7   force =     0.00010568   -0.00017253    0.00036774
     atom   75 type  7   force =     0.00002282   -0.00000302   -0.00052581
     atom   76 type  7   force =     0.00002290   -0.00000308   -0.00052576
     atom   77 type  7   force =    -0.00002291   -0.00000308    0.00052576
     atom   78 type  7   force =    -0.00002282   -0.00000303    0.00052581
     atom   79 type  4   force =    -0.00009669    0.00013938   -0.00010521
     atom   80 type  4   force =    -0.00009685    0.00013930   -0.00010532
     atom   81 type  4   force =     0.00009684    0.00013930    0.00010532
     atom   82 type  4   force =     0.00009669    0.00013938    0.00010521
     atom   83 type  4   force =     0.00010784   -0.00044095   -0.00030092
     atom   84 type  4   force =     0.00010783   -0.00044096   -0.00030073
     atom   85 type  4   force =    -0.00010783   -0.00044096    0.00030073
     atom   86 type  4   force =    -0.00010784   -0.00044095    0.00030092
     atom   87 type  2   force =    -0.00000001    0.00067138   -0.00000000
     atom   88 type  3   force =    -0.00000001    0.00067126   -0.00000000

     Total force =     0.030956     Total SCF correction =     0.000127

     DFT-D3 dispersion Force =     0.006427

     Computing stress (Cartesian axis) and pressure

     negative rho (up, down):  0.000E+00 3.801E-04
          total   stress  (Ry/bohr**3)                   (kbar)     P=       -2.66
  -0.00002527   0.00000000   0.00000027           -3.72        0.00        0.04
   0.00000000  -0.00001663   0.00000000            0.00       -2.45        0.00
   0.00000027   0.00000000  -0.00001244            0.04        0.00       -1.83

     kinetic stress (kbar)  20080.77      0.00    -34.48
                                0.00  20173.84      0.00
                              -34.48      0.00  19856.57

     local   stress (kbar) -40707.17      0.00   -395.48
                                0.00 -39886.71     -0.00
                             -395.48     -0.00  19243.39

     nonloc. stress (kbar)   3803.71      0.00      3.19
                                0.00   3796.14      0.00
                                3.19      0.00   3782.16

     hartree stress (kbar)  22906.11     -0.00    148.70
                               -0.00  22571.35      0.00
                              148.70      0.00  -6377.60

     exc-cor stress (kbar)  -2821.20      0.00      0.19
                                0.00  -2821.09      0.00
                                0.19      0.00  -2818.29

     corecor stress (kbar)  -1858.85     -0.00      0.37
                               -0.00  -1859.56     -0.00
                                0.37     -0.00  -1860.75

     ewald   stress (kbar)  -1392.40     -0.00    277.51
                               -0.00  -1961.67      0.00
                              277.51      0.00 -31816.34

     hubbard stress (kbar)      0.00      0.00      0.00
                                0.00      0.00      0.00
                                0.00      0.00      0.00

     DFT-D   stress (kbar)    -14.68      0.00      0.03
                                0.00    -14.75     -0.00
                                0.03     -0.00    -10.98

     XDM     stress (kbar)      0.00      0.00      0.00
                                0.00      0.00      0.00
                                0.00      0.00      0.00

     dft-nl  stress (kbar)      0.00      0.00      0.00
                                0.00      0.00      0.00
                                0.00      0.00      0.00

     TS-vdW  stress (kbar)      0.00      0.00      0.00
                                0.00      0.00      0.00
                                0.00      0.00      0.00

     MDB     stress (kbar)      0.00      0.00      0.00
                                0.00      0.00      0.00
                                0.00      0.00      0.00

     3D-RISM stress (kbar)      0.00      0.00      0.00
                                0.00      0.00      0.00
                                0.00      0.00      0.00

     Writing all to output data dir ./temp/phl-fe1-fe2x2.save/ :
     XML data file, charge density, pseudopotentials, collected wavefunctions

     General routines

     Parallel routines

     PAW routines

   This run was terminated on:   8:28:30  20Feb2025

   JOB DONE.