     Program PWSCF v.7.3.1 starts on 28Mar2025 at  4:39:52

     Reading input from vc_relax.in

     Current dimensions of program PWSCF are:
     Max number of different atomic species (ntypx) = 10
     Max number of k-points (npk) =  40000
     Max angular momentum in pseudopotentials (lmaxx) =  4
     file Al.pbe-n-kjpaw_psl.1.0.0.UPF: wavefunction(s)  3S 3P renormalized
     file Ti.pbe-spn-kjpaw_psl.1.0.0.UPF: wavefunction(s)  3S 3P 3D renormalized
     file H.pbe-kjpaw_psl.1.0.0.UPF: wavefunction(s)  1S renormalized
     file K.pbe-spn-kjpaw_psl.1.0.0.UPF: wavefunction(s)  3S renormalized
     file Mg.pbe-spnl-kjpaw_psl.1.0.0.UPF: wavefunction(s)  2P renormalized
     file O.pbe-n-kjpaw_psl.1.0.0.UPF: wavefunction(s)  2S 2P renormalized
     file Si.pbe-n-kjpaw_psl.1.0.0.UPF: wavefunction(s)  3S 3P renormalized

     R & G space division:  proc/nbgrp/npool/nimage =       6
     Subspace diagonalization in iterative solution of the eigenvalue problem:
     a serial algorithm will be used

     Using Slab Decomposition

     bravais-lattice index     =          -12
     lattice parameter (alat)  =      10.0639  a.u.
     unit-cell volume          =    3408.7535 (a.u.)^3
     number of atoms/cell      =           43
     number of atomic types    =            7
     number of electrons       =       248.00
     number of Kohn-Sham states=          149
     kinetic-energy cutoff     =      60.0000  Ry
     charge density cutoff     =     480.0000  Ry
     scf convergence threshold =      1.0E-06
     mixing beta               =       0.7000
     number of iterations used =            8  plain     mixing
     energy convergence thresh.=      1.0E-04
     force convergence thresh. =      1.0E-03
     press convergence thresh. =      5.0E-01
     Exchange-correlation= SLA  PW   PBX  PBC
                           (   1   4   3   4   0   0   0)
     nstep                     =           50

     celldm(1)=  10.063938  celldm(2)=   1.736001  celldm(3)=   1.956921
     celldm(4)=   0.000000  celldm(5)=  -0.175986  celldm(6)=   0.000000

     crystal axes: (cart. coord. in units of alat)
               a(1) = (   1.000000   0.000000   0.000000 )
               a(2) = (   0.000000   1.736001   0.000000 )
               a(3) = (  -0.344390   0.000000   1.926379 )

     reciprocal axes: (cart. coord. in units 2 pi/alat)
               b(1) = (  1.000000 -0.000000  0.178776 )
               b(2) = (  0.000000  0.576037 -0.000000 )
               b(3) = (  0.000000  0.000000  0.519109 )

     PseudoPot. # 1 for Al read from file:
     ./../../../pseudos/Al.pbe-n-kjpaw_psl.1.0.0.UPF
     MD5 check sum: 502b6b27b9c6270cab5dd1084b96fa6d
     Pseudo is Projector augmented-wave + core cor, Zval =  3.0
     Generated using &quot;atomic&quot; code by A. Dal Corso  v.6.3
     Shape of augmentation charge: PSQ
     Using radial grid of 1135 points,  6 beta functions with:
                l(1) =   0
                l(2) =   0
                l(3) =   1
                l(4) =   1
                l(5) =   2
                l(6) =   2
     Q(r) pseudized with 0 coefficients

     PseudoPot. # 2 for Ti read from file:
     ./../../../pseudos/Ti.pbe-spn-kjpaw_psl.1.0.0.UPF
     MD5 check sum: 01f69b0d8ba4438b2e03ac6ea4af1c0b
     Pseudo is Projector augmented-wave + core cor, Zval = 12.0
     Generated using &quot;atomic&quot; code by A. Dal Corso  v.6.2.2
     Shape of augmentation charge: PSQ
     Using radial grid of 1177 points,  6 beta functions with:
                l(1) =   0
                l(2) =   0
                l(3) =   1
                l(4) =   1
                l(5) =   2
                l(6) =   2
     Q(r) pseudized with 0 coefficients

     PseudoPot. # 3 for H  read from file:
     ./../../../pseudos/H.pbe-kjpaw_psl.1.0.0.UPF
     MD5 check sum: d81a744832360e4a8af0b0b5b123bc2a
     Pseudo is Projector augmented-wave, Zval =  1.0
     Generated using &quot;atomic&quot; code by A. Dal Corso  v.6.3MaX
     Shape of augmentation charge: PSQ
     Using radial grid of  929 points,  2 beta functions with:
                l(1) =   0
                l(2) =   0
     Q(r) pseudized with 0 coefficients

     PseudoPot. # 4 for K  read from file:
     ./../../../pseudos/K.pbe-spn-kjpaw_psl.1.0.0.UPF
     MD5 check sum: 34cc42130a09071ebe376fd42eb21491
     Pseudo is Projector augmented-wave + core cor, Zval =  9.0
     Generated using &quot;atomic&quot; code by A. Dal Corso  v.6.2.2
     Shape of augmentation charge: PSQ
     Using radial grid of 1165 points,  6 beta functions with:
                l(1) =   0
                l(2) =   0
                l(3) =   1
                l(4) =   1
                l(5) =   2
                l(6) =   2
     Q(r) pseudized with 0 coefficients

     PseudoPot. # 5 for Mg read from file:
     ./../../../pseudos/Mg.pbe-spnl-kjpaw_psl.1.0.0.UPF
     MD5 check sum: fda14e0d92a6a9a5ebed782e5a4b3067
     Pseudo is Projector augmented-wave + core cor, Zval = 10.0
     Generated using &quot;atomic&quot; code by A. Dal Corso  v.6.3
     Shape of augmentation charge: PSQ
     Using radial grid of 1129 points,  4 beta functions with:
                l(1) =   0
                l(2) =   0
                l(3) =   1
                l(4) =   1
     Q(r) pseudized with 0 coefficients

     PseudoPot. # 6 for O  read from file:
     ./../../../pseudos/O.pbe-n-kjpaw_psl.1.0.0.UPF
     MD5 check sum: e99d9cef9b487d1ca56f5b95ecd0fd7a
     Pseudo is Projector augmented-wave + core cor, Zval =  6.0
     Generated using &quot;atomic&quot; code by A. Dal Corso  v.6.3
     Shape of augmentation charge: PSQ
     Using radial grid of 1095 points,  4 beta functions with:
                l(1) =   0
                l(2) =   0
                l(3) =   1
                l(4) =   1
     Q(r) pseudized with 0 coefficients

     PseudoPot. # 7 for Si read from file:
     ./../../../pseudos/Si.pbe-n-kjpaw_psl.1.0.0.UPF
     MD5 check sum: c39c59da582df4a0d9f10159256ea34e
     Pseudo is Projector augmented-wave + core cor, Zval =  4.0
     Generated using &quot;atomic&quot; code by A. Dal Corso  v.6.3
     Shape of augmentation charge: PSQ
     Using radial grid of 1141 points,  6 beta functions with:
                l(1) =   0
                l(2) =   0
                l(3) =   1
                l(4) =   1
                l(5) =   2
                l(6) =   2
     Q(r) pseudized with 0 coefficients

     atomic species   valence    mass     pseudopotential
     Al                3.00    26.98154     Al( 1.00)
     Ti               12.00    47.86700     Ti( 1.00)
     H                 1.00     1.00794     H ( 1.00)
     K                 9.00    39.09830     K ( 1.00)
     Mg               10.00    24.30500     Mg( 1.00)
     O                 6.00    15.99940     O ( 1.00)
     Si                4.00    28.08550     Si( 1.00)

     Starting magnetic structure
     atomic species   magnetization
     Al              0.000
     Ti              0.300
     H               0.000
     K               0.000
     Mg              0.000
     O               0.000
     Si              0.000

      2 Sym. Ops. (no inversion) found

                                    s                        frac. trans.

      isym =  1     identity

 cryst.   s( 1) = (     1          0          0      )
                  (     0          1          0      )
                  (     0          0          1      )

 cart.    s( 1) = (  1.0000000  0.0000000  0.0000000 )
                  (  0.0000000  1.0000000  0.0000000 )
                  (  0.0000000  0.0000000  1.0000000 )

      isym =  2     180 deg rotation - cart. axis [0,1,0]

[...]

     point group C_2  (2)
     there are  2 classes
     the character table:

       E     C2
A      1.00  1.00
B      1.00 -1.00

     the symmetry operations in each class and the name of the first element:

     E        1
          identity
     C2       2
          180 deg rotation - cart. axis [0,1,0]

   Cartesian axes

     site n.     atom                  positions (alat units)
         1        K      tau(   1) = (   0.0000000   0.8607119   0.0000000  )
         2        K      tau(   2) = (   0.5000001   0.0073171   0.0000000  )
         3        Mg     tau(   3) = (  -0.1721948   1.6951275   0.9631892  )
         4        Mg     tau(   4) = (   0.3278053   0.8773094   0.9631892  )
         5        Mg     tau(   5) = (   0.3278053   1.4257858   0.9631892  )
         6        Mg     tau(   6) = (   0.3278053   0.2782711   0.9631892  )
         7        Si     tau(   7) = (  -0.0005543   0.2831889   0.4339877  )
         8        Si     tau(   8) = (   0.6561649   0.2831889   1.4923907  )
         9        Si     tau(   9) = (   0.6701923   1.4424402   1.4818157  )
        10        Si     tau(  10) = (  -0.0145817   1.4424402   0.4445627  )
        11        Si     tau(  11) = (   0.4771851   1.1535300   0.4352233  )
        12        Si     tau(  12) = (   0.1784255   1.1535300   1.4911550  )
        13        Al     tau(  13) = (   0.1496195   0.5755490   1.4937351  )
        14        Al     tau(  14) = (   0.5059911   0.5755490   0.4326433  )
        15        O      tau(  15) = (  -0.0143425   0.2960900   0.7474296  )
        16        O      tau(  16) = (   0.6699531   0.2960900   1.1789488  )
        17        O      tau(  17) = (   0.6500793   1.4461406   1.1827388  )
        18        O      tau(  18) = (   0.0055313   1.4461406   0.7436395  )
        19        O      tau(  19) = (   0.4674833   1.1465020   0.7368712  )
        20        O      tau(  20) = (   0.1881273   1.1465020   1.1895071  )
        21        O      tau(  21) = (   0.1410541   0.5705741   1.1560813  )
        22        O      tau(  22) = (   0.5145566   0.5705741   0.7702969  )
        23        O      tau(  23) = (   0.2794169   0.3545702   0.3388838  )
        24        O      tau(  24) = (   0.3761936   0.3545702   1.5874944  )
        25        O      tau(  25) = (   0.9403575   1.7296768   0.3333080  )
        26        O      tau(  26) = (  -0.2847469   1.7296768   1.5930703  )
        27        O      tau(  27) = (   0.4080411   1.3329313   1.6112630  )
        28        O      tau(  28) = (   0.2475695   1.3329313   0.3151153  )
        29        O      tau(  29) = (   0.7460245   1.2786237   0.3326485  )
        30        O      tau(  30) = (  -0.0904139   1.2786237   1.5937299  )
        31        O      tau(  31) = (   0.4502684   0.8760397   0.3105712  )
        32        O      tau(  32) = (   0.2053421   0.8760397   1.6158072  )
        33        O      tau(  33) = (  -0.1343245   0.4634634   1.6175381  )
        34        O      tau(  34) = (   0.7899351   0.4634634   0.3088402  )
        35        O      tau(  35) = (  -0.0131138   0.8364765   0.7603549  )
        36        O      tau(  36) = (   0.6687244   0.8364765   1.1660235  )
        37        O      tau(  37) = (   0.4976317   1.7308030   0.7732835  )
        38        O      tau(  38) = (   0.1579789   1.7308030   1.1530949  )
        39        H      tau(  39) = (  -0.1006665   0.9985569   0.7506854  )
        40        H      tau(  40) = (   0.7562772   0.9985569   1.1756929  )
[...]
     atom   40 type  3   force =    -1.39436875   -3.01683537   -1.55857096
     atom   41 type  3   force =     0.00176728   -0.04373479    5.16813399
     atom   42 type  3   force =    -0.00178854   -0.04373581   -5.16813854
     atom   43 type  2   force =    -0.00018008   -3.60674416    0.00022087
     The core correction contribution to forces
     atom    1 type  4   force =     0.00000000   -0.00079365    0.00000000
     atom    2 type  4   force =     0.00000097    0.00081737    0.00000000
     atom    3 type  5   force =    -0.00000139   -0.00101678    0.00000145
     atom    4 type  5   force =    -0.00000214    0.00073709    0.00000144
     atom    5 type  5   force =    -0.00000214   -0.00020539    0.00000145
     atom    6 type  5   force =    -0.00000214   -0.00055090    0.00000144
     atom    7 type  7   force =     0.00116609    0.00967000   -0.00425527
     atom    8 type  7   force =    -0.00116492    0.00967004    0.00425478
     atom    9 type  7   force =    -0.00166282    0.00234536   -0.02115394
     atom   10 type  7   force =     0.00166356    0.00234534    0.02115312
     atom   11 type  7   force =    -0.00245885   -0.01173005    0.01634127
     atom   12 type  7   force =     0.00245951   -0.01173000   -0.01634214
     atom   13 type  1   force =    -0.00138751   -0.00189218    0.00156876
     atom   14 type  1   force =     0.00138818   -0.00189216   -0.00156918
     atom   15 type  6   force =    -0.00007328   -0.00088362    0.00578867
     atom   16 type  6   force =     0.00007358   -0.00088367   -0.00578867
     atom   17 type  6   force =    -0.00003726   -0.00171385   -0.00810073
     atom   18 type  6   force =     0.00003762   -0.00171381    0.00810063
     atom   19 type  6   force =     0.00160152    0.00005116    0.00749312
     atom   20 type  6   force =    -0.00160123    0.00005116   -0.00749312
     atom   21 type  6   force =     0.00116843   -0.00007395   -0.00202303
     atom   22 type  6   force =    -0.00116817   -0.00007396    0.00202289
     atom   23 type  6   force =     0.00483712   -0.00219676   -0.00526949
     atom   24 type  6   force =    -0.00483709   -0.00219668    0.00526927
     atom   25 type  6   force =    -0.00366190    0.00018320   -0.00693062
     atom   26 type  6   force =     0.00366230    0.00018319    0.00693034
     atom   27 type  6   force =    -0.00145935    0.00212808    0.00789115
     atom   28 type  6   force =     0.00145936    0.00212823   -0.00789136
     atom   29 type  6   force =     0.00073600   -0.00176123   -0.00713640
     atom   30 type  6   force =    -0.00073599   -0.00176104    0.00713618
     atom   31 type  6   force =    -0.00216124   -0.00292679   -0.00691815
     atom   32 type  6   force =     0.00216156   -0.00292680    0.00691794
     atom   33 type  6   force =     0.00109771    0.00407974    0.00690890
     atom   34 type  6   force =    -0.00109754    0.00407983   -0.00690913
     atom   35 type  6   force =     0.00682337   -0.00866880   -0.00319346
     atom   36 type  6   force =    -0.00682305   -0.00866897    0.00319311
     atom   37 type  6   force =    -0.00028794   -0.00143931    0.01106652
     atom   38 type  6   force =     0.00028845   -0.00143929   -0.01106635
     atom   39 type  3   force =     0.00000000    0.00000000    0.00000000
     atom   40 type  3   force =     0.00000000    0.00000000    0.00000000
     atom   41 type  3   force =     0.00000000    0.00000000    0.00000000
     atom   42 type  3   force =     0.00000000    0.00000000    0.00000000
     atom   43 type  2   force =     0.00000468   -0.00990886   -0.00000485
     The Hubbard contrib.    to forces
     atom    1 type  4   force =     0.00000000    0.00000000    0.00000000
     atom    2 type  4   force =     0.00000000    0.00000000    0.00000000
     atom    3 type  5   force =     0.00000000    0.00000000    0.00000000
     atom    4 type  5   force =     0.00000000    0.00000000    0.00000000
     atom    5 type  5   force =     0.00000000    0.00000000    0.00000000
     atom    6 type  5   force =     0.00000000    0.00000000    0.00000000
     atom    7 type  7   force =     0.00000000    0.00000000    0.00000000
     atom    8 type  7   force =     0.00000000    0.00000000    0.00000000
     atom    9 type  7   force =     0.00000000    0.00000000    0.00000000
     atom   10 type  7   force =     0.00000000    0.00000000    0.00000000
     atom   11 type  7   force =     0.00000000    0.00000000    0.00000000
     atom   12 type  7   force =     0.00000000    0.00000000    0.00000000
     atom   13 type  1   force =     0.00000000    0.00000000    0.00000000
     atom   14 type  1   force =     0.00000000    0.00000000    0.00000000
     atom   15 type  6   force =     0.00000000    0.00000000    0.00000000
     atom   16 type  6   force =     0.00000000    0.00000000    0.00000000
     atom   17 type  6   force =     0.00000000    0.00000000    0.00000000
     atom   18 type  6   force =     0.00000000    0.00000000    0.00000000
     atom   19 type  6   force =     0.00000000    0.00000000    0.00000000
     atom   20 type  6   force =     0.00000000    0.00000000    0.00000000
     atom   21 type  6   force =     0.00000000    0.00000000    0.00000000
     atom   22 type  6   force =     0.00000000    0.00000000    0.00000000
     atom   23 type  6   force =     0.00000000    0.00000000    0.00000000
     atom   24 type  6   force =     0.00000000    0.00000000    0.00000000
     atom   25 type  6   force =     0.00000000    0.00000000    0.00000000
     atom   26 type  6   force =     0.00000000    0.00000000    0.00000000
     atom   27 type  6   force =     0.00000000    0.00000000    0.00000000
     atom   28 type  6   force =     0.00000000    0.00000000    0.00000000
     atom   29 type  6   force =     0.00000000    0.00000000    0.00000000
     atom   30 type  6   force =     0.00000000    0.00000000    0.00000000
     atom   31 type  6   force =     0.00000000    0.00000000    0.00000000
     atom   32 type  6   force =     0.00000000    0.00000000    0.00000000
     atom   33 type  6   force =     0.00000000    0.00000000    0.00000000
     atom   34 type  6   force =     0.00000000    0.00000000    0.00000000
     atom   35 type  6   force =     0.00000000    0.00000000    0.00000000
     atom   36 type  6   force =     0.00000000    0.00000000    0.00000000
     atom   37 type  6   force =     0.00000000    0.00000000    0.00000000
     atom   38 type  6   force =     0.00000000    0.00000000    0.00000000
     atom   39 type  3   force =     0.00000000    0.00000000    0.00000000
     atom   40 type  3   force =     0.00000000    0.00000000    0.00000000
     atom   41 type  3   force =     0.00000000    0.00000000    0.00000000
     atom   42 type  3   force =     0.00000000    0.00000000    0.00000000
     atom   43 type  2   force =     0.00000000    0.00000000    0.00000000
     The SCF correction term to forces
     atom    1 type  4   force =     0.00000000    0.00000321   -0.00000000
     atom    2 type  4   force =     0.00000000   -0.00000226   -0.00000000
     atom    3 type  5   force =    -0.00000000   -0.00001365    0.00000000
     atom    4 type  5   force =    -0.00000000    0.00001671    0.00000000
     atom    5 type  5   force =    -0.00000000    0.00000186    0.00000000
     atom    6 type  5   force =    -0.00000000   -0.00001627    0.00000000
     atom    7 type  7   force =     0.00000174   -0.00000881   -0.00001776
     atom    8 type  7   force =    -0.00000174   -0.00000881    0.00001776
     atom    9 type  7   force =    -0.00000001    0.00000394    0.00000810
     atom   10 type  7   force =     0.00000001    0.00000394   -0.00000810
     atom   11 type  7   force =     0.00000043    0.00000546   -0.00000296
     atom   12 type  7   force =    -0.00000043    0.00000546    0.00000296
     atom   13 type  1   force =     0.00000126   -0.00000202    0.00001087
     atom   14 type  1   force =    -0.00000126   -0.00000202   -0.00001087
     atom   15 type  6   force =     0.00001089   -0.00001582   -0.00003402
     atom   16 type  6   force =    -0.00001089   -0.00001582    0.00003402
     atom   17 type  6   force =    -0.00000083    0.00000066    0.00000020
     atom   18 type  6   force =     0.00000083    0.00000066   -0.00000020
     atom   19 type  6   force =     0.00000110    0.00000557    0.00000819
     atom   20 type  6   force =    -0.00000110    0.00000557   -0.00000819
     atom   21 type  6   force =     0.00000900    0.00000185    0.00002623
     atom   22 type  6   force =    -0.00000900    0.00000185   -0.00002623
     atom   23 type  6   force =     0.00000089   -0.00000789   -0.00000497
     atom   24 type  6   force =    -0.00000089   -0.00000789    0.00000497
     atom   25 type  6   force =    -0.00000040    0.00000661   -0.00001126
     atom   26 type  6   force =     0.00000040    0.00000661    0.00001126
     atom   27 type  6   force =     0.00000291    0.00001199    0.00001511
     atom   28 type  6   force =    -0.00000291    0.00001199   -0.00001511
     atom   29 type  6   force =     0.00000448    0.00000765   -0.00001266
     atom   30 type  6   force =    -0.00000448    0.00000765    0.00001266
     atom   31 type  6   force =     0.00000023   -0.00000737   -0.00000904
     atom   32 type  6   force =    -0.00000023   -0.00000737    0.00000904
     atom   33 type  6   force =     0.00000198   -0.00000870    0.00000914
     atom   34 type  6   force =    -0.00000198   -0.00000870   -0.00000914
     atom   35 type  6   force =    -0.00000435    0.00001671   -0.00000190
     atom   36 type  6   force =     0.00000435    0.00001671    0.00000190
     atom   37 type  6   force =    -0.00000537   -0.00000675   -0.00000922
     atom   38 type  6   force =     0.00000537   -0.00000675    0.00000922
     atom   39 type  3   force =    -0.00000200    0.00000505   -0.00000023
     atom   40 type  3   force =     0.00000200    0.00000505    0.00000023
     atom   41 type  3   force =    -0.00000042   -0.00000060    0.00000004
     atom   42 type  3   force =     0.00000042   -0.00000060   -0.00000004
     atom   43 type  2   force =    -0.00000000    0.00002523    0.00000000

     DFT-D3 dispersion contribution to forces:
     atom    1 type  4   force =     0.00000001    0.00042108   -0.00000000
     atom    2 type  4   force =    -0.00000000   -0.00032752    0.00000000
     atom    3 type  5   force =    -0.00000000   -0.00201076    0.00000000
     atom    4 type  5   force =     0.00000000    0.00074054   -0.00000000
     atom    5 type  5   force =     0.00000000   -0.00026595   -0.00000000
     atom    6 type  5   force =     0.00000000   -0.00082451   -0.00000000
     atom    7 type  7   force =     0.00001579    0.00013791   -0.00031323
     atom    8 type  7   force =    -0.00001578    0.00013791    0.00031323
     atom    9 type  7   force =     0.00047818   -0.00024464   -0.00066549
     atom   10 type  7   force =    -0.00047818   -0.00024464    0.00066549
     atom   11 type  7   force =     0.00063350   -0.00004018    0.00047595
     atom   12 type  7   force =    -0.00063350   -0.00004018   -0.00047595
     atom   13 type  1   force =     0.00007438   -0.00018051   -0.00068839
     atom   14 type  1   force =    -0.00007438   -0.00018051    0.00068839
     atom   15 type  6   force =     0.00009349   -0.00018338    0.00033582
     atom   16 type  6   force =    -0.00009349   -0.00018338   -0.00033582
     atom   17 type  6   force =     0.00023185    0.00016039   -0.00063378
     atom   18 type  6   force =    -0.00023185    0.00016039    0.00063379
     atom   19 type  6   force =    -0.00004640    0.00014314    0.00060439
     atom   20 type  6   force =     0.00004640    0.00014314   -0.00060439
     atom   21 type  6   force =     0.00004566   -0.00009515    0.00017841
     atom   22 type  6   force =    -0.00004566   -0.00009515   -0.00017841
     atom   23 type  6   force =    -0.00018234    0.00093000    0.00021989
     atom   24 type  6   force =     0.00018234    0.00093000   -0.00021989
     atom   25 type  6   force =     0.00089402    0.00011784    0.00015478
     atom   26 type  6   force =    -0.00089403    0.00011784   -0.00015478
     atom   27 type  6   force =     0.00033891   -0.00036169   -0.00021110
     atom   28 type  6   force =    -0.00033891   -0.00036169    0.00021110
     atom   29 type  6   force =    -0.00020947    0.00029800    0.00036226
     atom   30 type  6   force =     0.00020946    0.00029800   -0.00036226
     atom   31 type  6   force =     0.00087957   -0.00048131    0.00041661
     atom   32 type  6   force =    -0.00087958   -0.00048132   -0.00041661
     atom   33 type  6   force =     0.00063732   -0.00060747   -0.00025872
     atom   34 type  6   force =    -0.00063732   -0.00060747    0.00025872
     atom   35 type  6   force =     0.00011035    0.00036385   -0.00048664
     atom   36 type  6   force =    -0.00011035    0.00036385    0.00048664
     atom   37 type  6   force =     0.00000421    0.00014931   -0.00058443
     atom   38 type  6   force =    -0.00000421    0.00014931    0.00058443
     atom   39 type  3   force =    -0.00038961    0.00047674   -0.00003058
     atom   40 type  3   force =     0.00038961    0.00047674    0.00003058
     atom   41 type  3   force =    -0.00010774   -0.00013022   -0.00037129
     atom   42 type  3   force =     0.00010774   -0.00013022    0.00037129
     atom   43 type  2   force =    -0.00000000    0.00136188   -0.00000000

     Total force =     0.003328     Total SCF correction =     0.000104

     DFT-D3 dispersion Force =     0.004990

     Computing stress (Cartesian axis) and pressure

          total   stress  (Ry/bohr**3)                   (kbar)     P=        0.06
   0.00000135   0.00000000   0.00000068            0.20        0.00        0.10
   0.00000000  -0.00000197   0.00000000            0.00       -0.29        0.00
   0.00000068   0.00000000   0.00000193            0.10        0.00        0.28

     kinetic stress (kbar)  18497.56      0.00     -3.32
                                0.00  18415.44      0.00
                               -3.32      0.00  18382.78

     local   stress (kbar) -29419.62     -0.00    -75.24
                               -0.00 -28241.43      0.00
                              -75.24      0.00   7537.83

     nonloc. stress (kbar)   3901.74      0.00     -2.25
                                0.00   3894.77      0.00
                               -2.25      0.00   3896.51

     hartree stress (kbar)  16337.08      0.00      7.30
                                0.00  15782.34      0.00
                                7.30      0.00  -1553.49

     exc-cor stress (kbar)  -2357.25      0.00      0.44
                                0.00  -2356.36      0.00
                                0.44      0.00  -2357.28

     corecor stress (kbar)  -1983.10     -0.00     -0.17
                               -0.00  -1982.79     -0.00
                               -0.17     -0.00  -1984.14

     ewald   stress (kbar)  -4961.62      0.00     73.27
                                0.00  -5498.00     -0.00
                               73.27     -0.00 -23910.33

     hubbard stress (kbar)      0.00      0.00      0.00
                                0.00      0.00      0.00
                                0.00      0.00      0.00

     DFT-D   stress (kbar)    -14.60      0.00      0.06
                                0.00    -14.26      0.00
                                0.06      0.00    -11.59

     XDM     stress (kbar)      0.00      0.00      0.00
                                0.00      0.00      0.00
                                0.00      0.00      0.00

     dft-nl  stress (kbar)      0.00      0.00      0.00
                                0.00      0.00      0.00
                                0.00      0.00      0.00

     TS-vdW  stress (kbar)      0.00      0.00      0.00
                                0.00      0.00      0.00
                                0.00      0.00      0.00

     MDB     stress (kbar)      0.00      0.00      0.00
                                0.00      0.00      0.00
                                0.00      0.00      0.00

     3D-RISM stress (kbar)      0.00      0.00      0.00
                                0.00      0.00      0.00
                                0.00      0.00      0.00

     Writing all to output data dir ./temp/phl-ti1-ti2-v3.save/ :
     XML data file, charge density, pseudopotentials, collected wavefunctions

     General routines

     Parallel routines

     PAW routines

   This run was terminated on:  13:50:42  28Mar2025

   JOB DONE.