     Program PWSCF v.7.3.1 starts on 10Dec2024 at 12: 7:53

     Reading input from vc_relax.in

     Current dimensions of program PWSCF are:
     Max number of different atomic species (ntypx) = 10
     Max number of k-points (npk) =  40000
     Max angular momentum in pseudopotentials (lmaxx) =  4
     file Al.pbe-n-kjpaw_psl.1.0.0.UPF: wavefunction(s)  3S 3P renormalized
     file H.pbe-kjpaw_psl.1.0.0.UPF: wavefunction(s)  1S renormalized
     file K.pbe-spn-kjpaw_psl.1.0.0.UPF: wavefunction(s)  3S renormalized
     file Mg.pbe-spnl-kjpaw_psl.1.0.0.UPF: wavefunction(s)  2P renormalized
     file O.pbe-n-kjpaw_psl.1.0.0.UPF: wavefunction(s)  2S 2P renormalized
     file Si.pbe-n-kjpaw_psl.1.0.0.UPF: wavefunction(s)  3S 3P renormalized

     R & G space division:  proc/nbgrp/npool/nimage =      12
     Subspace diagonalization in iterative solution of the eigenvalue problem:
     a serial algorithm will be used

     Using Slab Decomposition

     bravais-lattice index     =          -12
     lattice parameter (alat)  =      10.0136  a.u.
     unit-cell volume          =    3303.4414 (a.u.)^3
     number of atoms/cell      =           44
     number of atomic types    =            6
     number of electrons       =       256.00
     number of Kohn-Sham states=          128
     kinetic-energy cutoff     =     110.0000  Ry
     charge density cutoff     =     440.0000  Ry
     scf convergence threshold =      1.0E-06
     mixing beta               =       0.7000
     number of iterations used =            8  plain     mixing
     energy convergence thresh.=      1.0E-04
     force convergence thresh. =      1.0E-03
     press convergence thresh. =      5.0E-01
     Exchange-correlation= SLA  PW   PBX  PBC
                           (   1   4   3   4   0   0   0)
     nstep                     =           50

     celldm(1)=  10.013640  celldm(2)=   1.735306  celldm(3)=   1.926511
     celldm(4)=   0.000000  celldm(5)=  -0.177565  celldm(6)=   0.000000

     crystal axes: (cart. coord. in units of alat)
               a(1) = (   1.000000   0.000000   0.000000 )
               a(2) = (   0.000000   1.735306   0.000000 )
               a(3) = (  -0.342081   0.000000   1.895896 )

     reciprocal axes: (cart. coord. in units 2 pi/alat)
               b(1) = (  1.000000 -0.000000  0.180432 )
               b(2) = (  0.000000  0.576267 -0.000000 )
               b(3) = (  0.000000  0.000000  0.527455 )

     PseudoPot. # 1 for Al read from file:
     ./../../../pseudos/Al.pbe-n-kjpaw_psl.1.0.0.UPF
     MD5 check sum: 502b6b27b9c6270cab5dd1084b96fa6d
     Pseudo is Projector augmented-wave + core cor, Zval =  3.0
     Generated using &quot;atomic&quot; code by A. Dal Corso  v.6.3
     Shape of augmentation charge: PSQ
     Using radial grid of 1135 points,  6 beta functions with:
                l(1) =   0
                l(2) =   0
                l(3) =   1
                l(4) =   1
                l(5) =   2
                l(6) =   2
     Q(r) pseudized with 0 coefficients

     PseudoPot. # 2 for H  read from file:
     ./../../../pseudos/H.pbe-kjpaw_psl.1.0.0.UPF
     MD5 check sum: d81a744832360e4a8af0b0b5b123bc2a
     Pseudo is Projector augmented-wave, Zval =  1.0
     Generated using &quot;atomic&quot; code by A. Dal Corso  v.6.3MaX
     Shape of augmentation charge: PSQ
     Using radial grid of  929 points,  2 beta functions with:
                l(1) =   0
                l(2) =   0
     Q(r) pseudized with 0 coefficients

     PseudoPot. # 3 for K  read from file:
     ./../../../pseudos/K.pbe-spn-kjpaw_psl.1.0.0.UPF
     MD5 check sum: 34cc42130a09071ebe376fd42eb21491
     Pseudo is Projector augmented-wave + core cor, Zval =  9.0
     Generated using &quot;atomic&quot; code by A. Dal Corso  v.6.2.2
     Shape of augmentation charge: PSQ
     Using radial grid of 1165 points,  6 beta functions with:
                l(1) =   0
                l(2) =   0
                l(3) =   1
                l(4) =   1
                l(5) =   2
                l(6) =   2
     Q(r) pseudized with 0 coefficients

     PseudoPot. # 4 for Mg read from file:
     ./../../../pseudos/Mg.pbe-spnl-kjpaw_psl.1.0.0.UPF
     MD5 check sum: fda14e0d92a6a9a5ebed782e5a4b3067
     Pseudo is Projector augmented-wave + core cor, Zval = 10.0
     Generated using &quot;atomic&quot; code by A. Dal Corso  v.6.3
     Shape of augmentation charge: PSQ
     Using radial grid of 1129 points,  4 beta functions with:
                l(1) =   0
                l(2) =   0
                l(3) =   1
                l(4) =   1
     Q(r) pseudized with 0 coefficients

     PseudoPot. # 5 for O  read from file:
     ./../../../pseudos/O.pbe-n-kjpaw_psl.1.0.0.UPF
     MD5 check sum: e99d9cef9b487d1ca56f5b95ecd0fd7a
     Pseudo is Projector augmented-wave + core cor, Zval =  6.0
     Generated using &quot;atomic&quot; code by A. Dal Corso  v.6.3
     Shape of augmentation charge: PSQ
     Using radial grid of 1095 points,  4 beta functions with:
                l(1) =   0
                l(2) =   0
                l(3) =   1
                l(4) =   1
     Q(r) pseudized with 0 coefficients

     PseudoPot. # 6 for Si read from file:
     ./../../../pseudos/Si.pbe-n-kjpaw_psl.1.0.0.UPF
     MD5 check sum: c39c59da582df4a0d9f10159256ea34e
     Pseudo is Projector augmented-wave + core cor, Zval =  4.0
     Generated using &quot;atomic&quot; code by A. Dal Corso  v.6.3
     Shape of augmentation charge: PSQ
     Using radial grid of 1141 points,  6 beta functions with:
                l(1) =   0
                l(2) =   0
                l(3) =   1
                l(4) =   1
                l(5) =   2
                l(6) =   2
     Q(r) pseudized with 0 coefficients

     atomic species   valence    mass     pseudopotential
     Al                3.00    26.98154     Al( 1.00)
     H                 1.00     1.00794     H ( 1.00)
     K                 9.00    39.09830     K ( 1.00)
     Mg               10.00    24.30500     Mg( 1.00)
     O                 6.00    15.99940     O ( 1.00)
     Si                4.00    28.08550     Si( 1.00)

      2 Sym. Ops. (no inversion) found

                                    s                        frac. trans.

      isym =  1     identity

 cryst.   s( 1) = (     1          0          0      )
                  (     0          1          0      )
                  (     0          0          1      )

 cart.    s( 1) = (  1.0000000  0.0000000 -0.0000000 )
                  (  0.0000000  1.0000000  0.0000000 )
                  (  0.0000000  0.0000000  1.0000000 )

      isym =  2     180 deg rotation - cart. axis [0,1,0]

[...]

     point group C_2  (2)
     there are  2 classes
     the character table:

       E     C2
A      1.00  1.00
B      1.00 -1.00

     the symmetry operations in each class and the name of the first element:

     E        1
          identity
     C2       2
          180 deg rotation - cart. axis [0,1,0]

   Cartesian axes

     site n.     atom                  positions (alat units)
         1        K      tau(   1) = (   0.0000000   0.8559224   0.0000000  )
         2        K      tau(   2) = (   0.5000000   0.0093568   0.0000000  )
         3        Mg     tau(   3) = (  -0.1710407   0.0067712   0.9479482  )
         4        Mg     tau(   4) = (  -0.1710407   0.5780843   0.9479482  )
         5        Mg     tau(   5) = (  -0.1710407   1.1543881   0.9479482  )
         6        Mg     tau(   6) = (   0.3289593   0.8562226   0.9479482  )
         7        Mg     tau(   7) = (   0.3289593   1.4480089   0.9479482  )
         8        Mg     tau(   8) = (   0.3289593   0.2986375   0.9479482  )
         9        Si     tau(   9) = (   0.0066674   0.2865251   0.4219393  )
        10        Si     tau(  10) = (   0.6512512   0.2865251   1.4739571  )
        11        Si     tau(  11) = (   0.6701371   1.4476688   1.4628623  )
        12        Si     tau(  12) = (  -0.0122184   1.4476688   0.4330341  )
        13        Si     tau(  13) = (   0.4872056   1.1568454   0.4292651  )
        14        Si     tau(  14) = (   0.1707131   1.1568454   1.4666313  )
        15        Al     tau(  15) = (   0.1506005   0.5746762   1.4713786  )
        16        Al     tau(  16) = (   0.5073182   0.5746762   0.4245178  )
        17        O      tau(  17) = (  -0.0043508   0.2833738   0.7297400  )
        18        O      tau(  18) = (   0.6622695   0.2833738   1.1661564  )
        19        O      tau(  19) = (   0.6658139   1.4451231   1.1576912  )
        20        O      tau(  20) = (  -0.0078952   1.4451231   0.7382052  )
        21        O      tau(  21) = (   0.4926234   1.1618863   0.7357690  )
        22        O      tau(  22) = (   0.1652953   1.1618863   1.1601274  )
        23        O      tau(  23) = (   0.1548298   0.5779784   1.1454267  )
        24        O      tau(  24) = (   0.5030889   0.5779784   0.7504697  )
        25        O      tau(  25) = (   0.2847398   0.3548857   0.3143567  )
        26        O      tau(  26) = (   0.3731789   0.3548857   1.5815397  )
        27        O      tau(  27) = (   0.9404978   1.7303189   0.3181314  )
        28        O      tau(  28) = (  -0.2825791   1.7303189   1.5777650  )
        29        O      tau(  29) = (   0.3988927   1.3439356   1.5754330  )
        30        O      tau(  30) = (   0.2590260   1.3439356   0.3204634  )
        31        O      tau(  31) = (   0.7582660   1.2710892   0.3185125  )
        32        O      tau(  32) = (  -0.1003473   1.2710892   1.5773839  )
        33        O      tau(  33) = (   0.4432368   0.8811364   0.3085875  )
        34        O      tau(  34) = (   0.2146819   0.8811364   1.5873090  )
        35        O      tau(  35) = (  -0.1423236   0.4782556   1.5925436  )
        36        O      tau(  36) = (   0.8002423   0.4782556   0.3033529  )
        37        O      tau(  37) = (  -0.0041068   0.8750247   0.7469263  )
        38        O      tau(  38) = (   0.6620255   0.8750247   1.1489701  )
        39        O      tau(  39) = (   0.4966158   1.7335917   0.7534577  )
        40        O      tau(  40) = (   0.1613029   1.7335917   1.1424387  )
        41        H      tau(  41) = (  -0.0032097   0.8603995   0.5673129  )
        42        H      tau(  42) = (   0.6611284   0.8603995   1.3285835  )
        43        H      tau(  43) = (   0.4926802   0.0219534   0.5746291  )
        44        H      tau(  44) = (   0.1652385   0.0219534   1.3212673  )

     Parameters for Dispersion (Grimme-D2) Correction:
       atom      VdW radius       C_6

        Al         3.097        374.319
        H          1.892          4.857
        K          2.806        374.666
        Mg         2.578        198.087
        O          2.536         24.284
        Si         3.243        320.200

   Crystallographic axes

     site n.     atom                  positions (cryst. coord.)
         1        K      tau(   1) = (  0.0000000  0.4932400  0.0000000  )
         2        K      tau(   2) = (  0.5000000  0.0053920  0.0000000  )
         3        Mg     tau(   3) = (  0.0000000  0.0039020  0.5000000  )
[...]
     atom   44 type  2   force =    -0.04182505   -0.43910865   -5.27812179
     The core correction contribution to forces
     atom    1 type  3   force =     0.00000000   -0.00140211   -0.00000000
     atom    2 type  3   force =    -0.00000000    0.00148372   -0.00000000
     atom    3 type  4   force =     0.00000000    0.00023809   -0.00000000
     atom    4 type  4   force =     0.00000000    0.00026077   -0.00000000
     atom    5 type  4   force =     0.00000000   -0.00039302    0.00000000
     atom    6 type  4   force =    -0.00000000   -0.00084770   -0.00000000
     atom    7 type  4   force =    -0.00000000    0.00029402   -0.00000000
     atom    8 type  4   force =    -0.00000000    0.00043593    0.00000000
     atom    9 type  6   force =     0.00264637    0.01060261    0.00648262
     atom   10 type  6   force =    -0.00264641    0.01060262   -0.00648254
     atom   11 type  6   force =     0.00043353    0.00358204   -0.01385162
     atom   12 type  6   force =    -0.00043353    0.00358204    0.01385162
     atom   13 type  6   force =    -0.00182075   -0.01201492    0.01100905
     atom   14 type  6   force =     0.00182076   -0.01201492   -0.01100909
     atom   15 type  1   force =    -0.00073663   -0.00230230   -0.01093109
     atom   16 type  1   force =     0.00073663   -0.00230230    0.01093109
     atom   17 type  5   force =    -0.00013262    0.00020397    0.00643171
     atom   18 type  5   force =     0.00013260    0.00020397   -0.00643171
     atom   19 type  5   force =    -0.00009098    0.00004347   -0.00695117
     atom   20 type  5   force =     0.00009098    0.00004347    0.00695117
     atom   21 type  5   force =     0.00005733   -0.00017704    0.00681313
     atom   22 type  5   force =    -0.00005733   -0.00017704   -0.00681313
     atom   23 type  5   force =     0.00007644    0.00005966   -0.00317476
     atom   24 type  5   force =    -0.00007644    0.00005966    0.00317476
     atom   25 type  5   force =     0.00468810   -0.00198831   -0.00565541
     atom   26 type  5   force =    -0.00468811   -0.00198831    0.00565538
     atom   27 type  5   force =    -0.00381440    0.00082415   -0.00703131
     atom   28 type  5   force =     0.00381441    0.00082415    0.00703129
     atom   29 type  5   force =    -0.00185049    0.00274116    0.00715481
     atom   30 type  5   force =     0.00185049    0.00274116   -0.00715481
     atom   31 type  5   force =     0.00113832   -0.00262470   -0.00736944
     atom   32 type  5   force =    -0.00113832   -0.00262470    0.00736944
     atom   33 type  5   force =    -0.00273908   -0.00349053   -0.00637753
     atom   34 type  5   force =     0.00273906   -0.00349053    0.00637755
     atom   35 type  5   force =     0.00094379    0.00435396    0.00638818
     atom   36 type  5   force =    -0.00094378    0.00435396   -0.00638818
     atom   37 type  5   force =     0.00002196    0.00081126    0.01112356
     atom   38 type  5   force =    -0.00002195    0.00081126   -0.01112356
     atom   39 type  5   force =     0.00010906   -0.00172630    0.01082464
     atom   40 type  5   force =    -0.00010905   -0.00172629   -0.01082462
     atom   41 type  2   force =     0.00000000    0.00000000    0.00000000
     atom   42 type  2   force =     0.00000000    0.00000000    0.00000000
     atom   43 type  2   force =     0.00000000    0.00000000    0.00000000
     atom   44 type  2   force =     0.00000000    0.00000000    0.00000000
     The Hubbard contrib.    to forces
     atom    1 type  3   force =     0.00000000    0.00000000    0.00000000
     atom    2 type  3   force =     0.00000000    0.00000000    0.00000000
     atom    3 type  4   force =     0.00000000    0.00000000    0.00000000
     atom    4 type  4   force =     0.00000000    0.00000000    0.00000000
     atom    5 type  4   force =     0.00000000    0.00000000    0.00000000
     atom    6 type  4   force =     0.00000000    0.00000000    0.00000000
     atom    7 type  4   force =     0.00000000    0.00000000    0.00000000
     atom    8 type  4   force =     0.00000000    0.00000000    0.00000000
     atom    9 type  6   force =     0.00000000    0.00000000    0.00000000
     atom   10 type  6   force =     0.00000000    0.00000000    0.00000000
     atom   11 type  6   force =     0.00000000    0.00000000    0.00000000
     atom   12 type  6   force =     0.00000000    0.00000000    0.00000000
     atom   13 type  6   force =     0.00000000    0.00000000    0.00000000
     atom   14 type  6   force =     0.00000000    0.00000000    0.00000000
     atom   15 type  1   force =     0.00000000    0.00000000    0.00000000
     atom   16 type  1   force =     0.00000000    0.00000000    0.00000000
     atom   17 type  5   force =     0.00000000    0.00000000    0.00000000
     atom   18 type  5   force =     0.00000000    0.00000000    0.00000000
     atom   19 type  5   force =     0.00000000    0.00000000    0.00000000
     atom   20 type  5   force =     0.00000000    0.00000000    0.00000000
     atom   21 type  5   force =     0.00000000    0.00000000    0.00000000
     atom   22 type  5   force =     0.00000000    0.00000000    0.00000000
     atom   23 type  5   force =     0.00000000    0.00000000    0.00000000
     atom   24 type  5   force =     0.00000000    0.00000000    0.00000000
     atom   25 type  5   force =     0.00000000    0.00000000    0.00000000
     atom   26 type  5   force =     0.00000000    0.00000000    0.00000000
     atom   27 type  5   force =     0.00000000    0.00000000    0.00000000
     atom   28 type  5   force =     0.00000000    0.00000000    0.00000000
     atom   29 type  5   force =     0.00000000    0.00000000    0.00000000
     atom   30 type  5   force =     0.00000000    0.00000000    0.00000000
     atom   31 type  5   force =     0.00000000    0.00000000    0.00000000
     atom   32 type  5   force =     0.00000000    0.00000000    0.00000000
     atom   33 type  5   force =     0.00000000    0.00000000    0.00000000
     atom   34 type  5   force =     0.00000000    0.00000000    0.00000000
     atom   35 type  5   force =     0.00000000    0.00000000    0.00000000
     atom   36 type  5   force =     0.00000000    0.00000000    0.00000000
     atom   37 type  5   force =     0.00000000    0.00000000    0.00000000
     atom   38 type  5   force =     0.00000000    0.00000000    0.00000000
     atom   39 type  5   force =     0.00000000    0.00000000    0.00000000
     atom   40 type  5   force =     0.00000000    0.00000000    0.00000000
     atom   41 type  2   force =     0.00000000    0.00000000    0.00000000
     atom   42 type  2   force =     0.00000000    0.00000000    0.00000000
     atom   43 type  2   force =     0.00000000    0.00000000    0.00000000
     atom   44 type  2   force =     0.00000000    0.00000000    0.00000000
     The SCF correction term to forces
     atom    1 type  3   force =     0.00000000    0.00002346    0.00000000
     atom    2 type  3   force =    -0.00000000   -0.00002436    0.00000000
     atom    3 type  4   force =     0.00000000   -0.00000557   -0.00000000
     atom    4 type  4   force =     0.00000000   -0.00001256   -0.00000000
     atom    5 type  4   force =     0.00000000    0.00002007    0.00000000
     atom    6 type  4   force =    -0.00000000    0.00000973   -0.00000000
     atom    7 type  4   force =    -0.00000000   -0.00000584    0.00000000
     atom    8 type  4   force =    -0.00000000   -0.00000700    0.00000000
     atom    9 type  6   force =    -0.00000168   -0.00001331    0.00000168
     atom   10 type  6   force =     0.00000168   -0.00001331   -0.00000168
     atom   11 type  6   force =    -0.00000027    0.00000228    0.00000916
     atom   12 type  6   force =     0.00000027    0.00000228   -0.00000916
     atom   13 type  6   force =     0.00000064    0.00001439   -0.00000265
     atom   14 type  6   force =    -0.00000064    0.00001439    0.00000265
     atom   15 type  1   force =     0.00000015   -0.00000195   -0.00000295
     atom   16 type  1   force =    -0.00000015   -0.00000195    0.00000295
     atom   17 type  5   force =     0.00000060   -0.00000612   -0.00002311
     atom   18 type  5   force =    -0.00000060   -0.00000612    0.00002311
     atom   19 type  5   force =     0.00000062    0.00000199    0.00002620
     atom   20 type  5   force =    -0.00000062    0.00000199   -0.00002620
     atom   21 type  5   force =    -0.00000186    0.00000809   -0.00002211
     atom   22 type  5   force =     0.00000186    0.00000809    0.00002211
     atom   23 type  5   force =     0.00000147   -0.00000409    0.00000701
     atom   24 type  5   force =    -0.00000147   -0.00000409   -0.00000701
     atom   25 type  5   force =    -0.00001456   -0.00001466    0.00001453
     atom   26 type  5   force =     0.00001456   -0.00001466   -0.00001453
     atom   27 type  5   force =     0.00000309   -0.00001245    0.00000840
     atom   28 type  5   force =    -0.00000309   -0.00001245   -0.00000840
     atom   29 type  5   force =     0.00000786    0.00000879   -0.00000574
     atom   30 type  5   force =    -0.00000786    0.00000879    0.00000574
     atom   31 type  5   force =     0.00000523    0.00001420    0.00000610
     atom   32 type  5   force =    -0.00000523    0.00001420   -0.00000610
     atom   33 type  5   force =    -0.00000048    0.00002206    0.00001614
     atom   34 type  5   force =     0.00000048    0.00002206   -0.00001614
     atom   35 type  5   force =    -0.00001402   -0.00001743   -0.00001775
     atom   36 type  5   force =     0.00001402   -0.00001743    0.00001775
     atom   37 type  5   force =     0.00000140    0.00000369   -0.00001774
     atom   38 type  5   force =    -0.00000140    0.00000369    0.00001774
     atom   39 type  5   force =     0.00000018   -0.00000292   -0.00002150
     atom   40 type  5   force =    -0.00000018   -0.00000292    0.00002150
     atom   41 type  2   force =     0.00000008    0.00000078   -0.00000532
     atom   42 type  2   force =    -0.00000008    0.00000078    0.00000532
     atom   43 type  2   force =     0.00000006   -0.00000089   -0.00000558
     atom   44 type  2   force =    -0.00000006   -0.00000089    0.00000558

     Dispersion contribution to forces:
     atom    1 type  3   force =    -0.00000000    0.00243812   -0.00000000
     atom    2 type  3   force =    -0.00000000   -0.00191347   -0.00000000
     atom    3 type  4   force =    -0.00000000    0.00054152    0.00000000
     atom    4 type  4   force =    -0.00000000    0.00058882    0.00000000
     atom    5 type  4   force =    -0.00000000   -0.00135887   -0.00000000
     atom    6 type  4   force =     0.00000000   -0.00011527   -0.00000000
     atom    7 type  4   force =     0.00000000    0.00130352   -0.00000000
     atom    8 type  4   force =     0.00000000   -0.00081280    0.00000000
     atom    9 type  6   force =    -0.00017842   -0.00046728    0.00146412
     atom   10 type  6   force =     0.00017842   -0.00046728   -0.00146412
     atom   11 type  6   force =    -0.00004392    0.00026387   -0.00092034
     atom   12 type  6   force =     0.00004392    0.00026387    0.00092034
     atom   13 type  6   force =    -0.00006871    0.00048999    0.00134099
     atom   14 type  6   force =     0.00006871    0.00048999   -0.00134099
     atom   15 type  1   force =    -0.00004697   -0.00028831   -0.00348228
     atom   16 type  1   force =     0.00004697   -0.00028831    0.00348228
     atom   17 type  5   force =    -0.00017658    0.00009911    0.00040465
     atom   18 type  5   force =     0.00017658    0.00009911   -0.00040466
     atom   19 type  5   force =     0.00010550   -0.00012561   -0.00027750
     atom   20 type  5   force =    -0.00010550   -0.00012561    0.00027749
     atom   21 type  5   force =    -0.00007802    0.00000369    0.00032816
     atom   22 type  5   force =     0.00007802    0.00000369   -0.00032816
     atom   23 type  5   force =    -0.00016308   -0.00021427    0.00106928
     atom   24 type  5   force =     0.00016308   -0.00021427   -0.00106928
     atom   25 type  5   force =     0.00036665    0.00187543    0.00147029
     atom   26 type  5   force =    -0.00036666    0.00187543   -0.00147029
     atom   27 type  5   force =     0.00017745    0.00015070    0.00066302
     atom   28 type  5   force =    -0.00017745    0.00015070   -0.00066302
     atom   29 type  5   force =    -0.00013808    0.00031253   -0.00002823
     atom   30 type  5   force =     0.00013808    0.00031253    0.00002823
     atom   31 type  5   force =     0.00030558   -0.00047525   -0.00025218
     atom   32 type  5   force =    -0.00030558   -0.00047525    0.00025218
     atom   33 type  5   force =     0.00077809   -0.00149705    0.00104428
     atom   34 type  5   force =    -0.00077809   -0.00149705   -0.00104428
     atom   35 type  5   force =     0.00153184   -0.00030711   -0.00126289
     atom   36 type  5   force =    -0.00153184   -0.00030711    0.00126289
     atom   37 type  5   force =     0.00000981    0.00011790   -0.00232794
     atom   38 type  5   force =    -0.00000981    0.00011790    0.00232794
     atom   39 type  5   force =     0.00017474    0.00007126   -0.00247371
     atom   40 type  5   force =    -0.00017474    0.00007126    0.00247371
     atom   41 type  2   force =    -0.00000240   -0.00014715    0.00079350
     atom   42 type  2   force =     0.00000240   -0.00014715   -0.00079350
     atom   43 type  2   force =     0.00038150   -0.00019825    0.00098019
     atom   44 type  2   force =    -0.00038150   -0.00019825   -0.00098019

     Total force =     0.002826     Total SCF correction =     0.000119

     Total Dispersion Force =     0.010450

     Computing stress (Cartesian axis) and pressure

          total   stress  (Ry/bohr**3)                   (kbar)     P=        0.04
   0.00000061   0.00000000  -0.00000067            0.09        0.00       -0.10
   0.00000000   0.00000125   0.00000000            0.00        0.18        0.00
  -0.00000067   0.00000000  -0.00000110           -0.10        0.00       -0.16

     kinetic stress (kbar)  19275.86      0.00     -5.33
                                0.00  19268.29      0.00
                               -5.33      0.00  18959.75

     local   stress (kbar) -35348.37      0.00    -52.87
                                0.00 -35086.76      0.00
                              -52.87      0.00  12705.80

     nonloc. stress (kbar)   5121.52      0.00     -0.47
                                0.00   5121.24      0.00
                               -0.47      0.00   5113.85

     hartree stress (kbar)  19581.01      0.00     19.01
                                0.00  19466.17     -0.00
                               19.01     -0.00  -3951.36

     exc-cor stress (kbar)  -2805.55     -0.00      0.08
                               -0.00  -2805.56      0.00
                                0.08      0.00  -2802.24

     corecor stress (kbar)  -1868.90      0.00      0.11
                                0.00  -1868.90     -0.00
                                0.11     -0.00  -1870.65

     ewald   stress (kbar)  -3923.92     -0.00     39.15
                               -0.00  -4062.79     -0.00
                               39.15     -0.00 -28124.94

     hubbard stress (kbar)      0.00      0.00      0.00
                                0.00      0.00      0.00
                                0.00      0.00      0.00

     DFT-D   stress (kbar)    -31.56      0.00      0.22
                                0.00    -31.51     -0.00
                                0.22     -0.00    -30.36

     XDM     stress (kbar)      0.00      0.00      0.00
                                0.00      0.00      0.00
                                0.00      0.00      0.00

     dft-nl  stress (kbar)      0.00      0.00      0.00
                                0.00      0.00      0.00
                                0.00      0.00      0.00

     TS-vdW  stress (kbar)      0.00      0.00      0.00
                                0.00      0.00      0.00
                                0.00      0.00      0.00

     MDB     stress (kbar)      0.00      0.00      0.00
                                0.00      0.00      0.00
                                0.00      0.00      0.00

     3D-RISM stress (kbar)      0.00      0.00      0.00
                                0.00      0.00      0.00
                                0.00      0.00      0.00

     Writing all to output data dir ./temp/phl-fe0.save/ :
     XML data file, charge density, pseudopotentials, collected wavefunctions

     General routines

     Parallel routines

     PAW routines

   This run was terminated on:  20:10: 4  10Dec2024

   JOB DONE.