     Program PWSCF v.7.3.1 starts on  3Jan2025 at 11:29:54

     Reading input from vc_relax.in

     Current dimensions of program PWSCF are:
     Max number of different atomic species (ntypx) = 10
     Max number of k-points (npk) =  40000
     Max angular momentum in pseudopotentials (lmaxx) =  4
     file Al.pbe-n-kjpaw_psl.1.0.0.UPF: wavefunction(s)  3S 3P renormalized
     file Fe.pbe-spn-kjpaw_psl.1.0.0.UPF: wavefunction(s)  3P 3D renormalized
     file H.pbe-kjpaw_psl.1.0.0.UPF: wavefunction(s)  1S renormalized
     file K.pbe-spn-kjpaw_psl.1.0.0.UPF: wavefunction(s)  3S renormalized
     file Mg.pbe-spnl-kjpaw_psl.1.0.0.UPF: wavefunction(s)  2P renormalized
     file O.pbe-n-kjpaw_psl.1.0.0.UPF: wavefunction(s)  2S 2P renormalized
     file Si.pbe-n-kjpaw_psl.1.0.0.UPF: wavefunction(s)  3S 3P renormalized

     R & G space division:  proc/nbgrp/npool/nimage =       6
     Subspace diagonalization in iterative solution of the eigenvalue problem:
     one sub-group per band group will be used

     Using Slab Decomposition

     bravais-lattice index     =          -12
     lattice parameter (alat)  =      10.0136  a.u.
     unit-cell volume          =    3303.4414 (a.u.)^3
     number of atoms/cell      =           44
     number of atomic types    =            7
     number of electrons       =       262.00
     number of Kohn-Sham states=          157
     kinetic-energy cutoff     =      60.0000  Ry
     charge density cutoff     =     480.0000  Ry
     scf convergence threshold =      1.0E-06
     mixing beta               =       0.7000
     number of iterations used =            8  plain     mixing
     energy convergence thresh.=      1.0E-04
     force convergence thresh. =      1.0E-03
     press convergence thresh. =      5.0E-01
     Exchange-correlation= SLA  PW   PBX  PBC
                           (   1   4   3   4   0   0   0)
     nstep                     =           50

     celldm(1)=  10.013640  celldm(2)=   1.735306  celldm(3)=   1.926511
     celldm(4)=   0.000000  celldm(5)=  -0.177565  celldm(6)=   0.000000

     crystal axes: (cart. coord. in units of alat)
               a(1) = (   1.000000   0.000000   0.000000 )
               a(2) = (   0.000000   1.735306   0.000000 )
               a(3) = (  -0.342081   0.000000   1.895896 )

     reciprocal axes: (cart. coord. in units 2 pi/alat)
               b(1) = (  1.000000 -0.000000  0.180432 )
               b(2) = (  0.000000  0.576267 -0.000000 )
               b(3) = (  0.000000  0.000000  0.527455 )

     PseudoPot. # 1 for Al read from file:
     ./../../pseudos/Al.pbe-n-kjpaw_psl.1.0.0.UPF
     MD5 check sum: 502b6b27b9c6270cab5dd1084b96fa6d
     Pseudo is Projector augmented-wave + core cor, Zval =  3.0
     Generated using &quot;atomic&quot; code by A. Dal Corso  v.6.3
     Shape of augmentation charge: PSQ
     Using radial grid of 1135 points,  6 beta functions with:
                l(1) =   0
                l(2) =   0
                l(3) =   1
                l(4) =   1
                l(5) =   2
                l(6) =   2
     Q(r) pseudized with 0 coefficients

     PseudoPot. # 2 for Fe read from file:
     ./../../pseudos/Fe.pbe-spn-kjpaw_psl.1.0.0.UPF
     MD5 check sum: fc81f059e5c5069939230b1155715ae8
     Pseudo is Projector augmented-wave + core cor, Zval = 16.0
     Generated using &quot;atomic&quot; code by A. Dal Corso  v.6.3
     Shape of augmentation charge: PSQ
     Using radial grid of 1191 points,  6 beta functions with:
                l(1) =   0
                l(2) =   0
                l(3) =   1
                l(4) =   1
                l(5) =   2
                l(6) =   2
     Q(r) pseudized with 0 coefficients

     PseudoPot. # 3 for H  read from file:
     ./../../pseudos/H.pbe-kjpaw_psl.1.0.0.UPF
     MD5 check sum: d81a744832360e4a8af0b0b5b123bc2a
     Pseudo is Projector augmented-wave, Zval =  1.0
     Generated using &quot;atomic&quot; code by A. Dal Corso  v.6.3MaX
     Shape of augmentation charge: PSQ
     Using radial grid of  929 points,  2 beta functions with:
                l(1) =   0
                l(2) =   0
     Q(r) pseudized with 0 coefficients

     PseudoPot. # 4 for K  read from file:
     ./../../pseudos/K.pbe-spn-kjpaw_psl.1.0.0.UPF
     MD5 check sum: 34cc42130a09071ebe376fd42eb21491
     Pseudo is Projector augmented-wave + core cor, Zval =  9.0
     Generated using &quot;atomic&quot; code by A. Dal Corso  v.6.2.2
     Shape of augmentation charge: PSQ
     Using radial grid of 1165 points,  6 beta functions with:
                l(1) =   0
                l(2) =   0
                l(3) =   1
                l(4) =   1
                l(5) =   2
                l(6) =   2
     Q(r) pseudized with 0 coefficients

     PseudoPot. # 5 for Mg read from file:
     ./../../pseudos/Mg.pbe-spnl-kjpaw_psl.1.0.0.UPF
     MD5 check sum: fda14e0d92a6a9a5ebed782e5a4b3067
     Pseudo is Projector augmented-wave + core cor, Zval = 10.0
     Generated using &quot;atomic&quot; code by A. Dal Corso  v.6.3
     Shape of augmentation charge: PSQ
     Using radial grid of 1129 points,  4 beta functions with:
                l(1) =   0
                l(2) =   0
                l(3) =   1
                l(4) =   1
     Q(r) pseudized with 0 coefficients

     PseudoPot. # 6 for O  read from file:
     ./../../pseudos/O.pbe-n-kjpaw_psl.1.0.0.UPF
     MD5 check sum: e99d9cef9b487d1ca56f5b95ecd0fd7a
     Pseudo is Projector augmented-wave + core cor, Zval =  6.0
     Generated using &quot;atomic&quot; code by A. Dal Corso  v.6.3
     Shape of augmentation charge: PSQ
     Using radial grid of 1095 points,  4 beta functions with:
                l(1) =   0
                l(2) =   0
                l(3) =   1
                l(4) =   1
     Q(r) pseudized with 0 coefficients

     PseudoPot. # 7 for Si read from file:
     ./../../pseudos/Si.pbe-n-kjpaw_psl.1.0.0.UPF
     MD5 check sum: c39c59da582df4a0d9f10159256ea34e
     Pseudo is Projector augmented-wave + core cor, Zval =  4.0
     Generated using &quot;atomic&quot; code by A. Dal Corso  v.6.3
     Shape of augmentation charge: PSQ
     Using radial grid of 1141 points,  6 beta functions with:
                l(1) =   0
                l(2) =   0
                l(3) =   1
                l(4) =   1
                l(5) =   2
                l(6) =   2
     Q(r) pseudized with 0 coefficients

     atomic species   valence    mass     pseudopotential
     Al                3.00    26.98154     Al( 1.00)
     Fe               16.00    55.84500     Fe( 1.00)
     H                 1.00     1.00794     H ( 1.00)
     K                 9.00    39.09830     K ( 1.00)
     Mg               10.00    24.30500     Mg( 1.00)
     O                 6.00    15.99940     O ( 1.00)
     Si                4.00    28.08550     Si( 1.00)

      2 Sym. Ops. (no inversion) found

                                    s                        frac. trans.

      isym =  1     identity

 cryst.   s( 1) = (     1          0          0      )
                  (     0          1          0      )
                  (     0          0          1      )

 cart.    s( 1) = (  1.0000000  0.0000000 -0.0000000 )
                  (  0.0000000  1.0000000  0.0000000 )
                  (  0.0000000  0.0000000  1.0000000 )

      isym =  2     180 deg rotation - cart. axis [0,1,0]

[...]

     point group C_2  (2)
     there are  2 classes
     the character table:

       E     C2
A      1.00  1.00
B      1.00 -1.00

     the symmetry operations in each class and the name of the first element:

     E        1
          identity
     C2       2
          180 deg rotation - cart. axis [0,1,0]

   Cartesian axes

     site n.     atom                  positions (alat units)
         1        K      tau(   1) = (   0.0000000   0.8553281   0.0000000  )
         2        K      tau(   2) = (   0.5000000   0.0079247   0.0000000  )
         3        Mg     tau(   3) = (  -0.1710407   0.5722904   0.9479482  )
         4        Mg     tau(   4) = (  -0.1710407   1.1568546   0.9479482  )
         5        Mg     tau(   5) = (   0.3289593   0.8557243   0.9479482  )
         6        Mg     tau(   6) = (   0.3289593   1.4521403   0.9479482  )
         7        Mg     tau(   7) = (   0.3289593   0.2960185   0.9479482  )
         8        Si     tau(   8) = (   0.0049741   0.2842459   0.4230849  )
         9        Si     tau(   9) = (   0.6529445   0.2842459   1.4728116  )
        10        Si     tau(  10) = (   0.6741816   1.4500226   1.4617906  )
        11        Si     tau(  11) = (  -0.0162629   1.4500226   0.4341057  )
        12        Si     tau(  12) = (   0.4838768   1.1570486   0.4309746  )
        13        Si     tau(  13) = (   0.1740419   1.1570486   1.4649218  )
        14        Al     tau(  14) = (   0.1515930   0.5745638   1.4693919  )
        15        Al     tau(  15) = (   0.5063256   0.5745638   0.4265046  )
        16        O      tau(  16) = (  -0.0066679   0.2769469   0.7321247  )
        17        O      tau(  17) = (   0.6645865   0.2769469   1.1637717  )
        18        O      tau(  18) = (   0.6674007   1.4511464   1.1555036  )
        19        O      tau(  19) = (  -0.0094820   1.4511464   0.7403928  )
        20        O      tau(  20) = (   0.4910366   1.1622018   0.7373565  )
        21        O      tau(  21) = (   0.1668821   1.1622018   1.1585400  )
        22        O      tau(  22) = (   0.1555496   0.5771415   1.1434801  )
        23        O      tau(  23) = (   0.5023691   0.5771415   0.7524162  )
        24        O      tau(  24) = (   0.2845215   0.3511422   0.3156195  )
        25        O      tau(  25) = (   0.3733973   0.3511422   1.5802768  )
        26        O      tau(  26) = (   0.9338539   1.7308778   0.3145363  )
        27        O      tau(  27) = (  -0.2759352   1.7308778   1.5813600  )
        28        O      tau(  28) = (   0.4024784   1.3450547   1.5736991  )
        29        O      tau(  29) = (   0.2554404   1.3450547   0.3221973  )
        30        O      tau(  30) = (   0.7552644   1.2712422   0.3194354  )
        31        O      tau(  31) = (  -0.0973457   1.2712422   1.5764610  )
        32        O      tau(  32) = (   0.4389983   0.8813795   0.3081431  )
        33        O      tau(  33) = (   0.2189203   0.8813795   1.5877533  )
        34        O      tau(  34) = (  -0.1437976   0.4806182   1.5921662  )
        35        O      tau(  35) = (   0.8017162   0.4806182   0.3037302  )
        36        O      tau(  36) = (  -0.0054154   0.8747460   0.7469385  )
        37        O      tau(  37) = (   0.6633341   0.8747460   1.1489580  )
        38        O      tau(  38) = (   0.5030313   1.7351756   0.7571921  )
        39        O      tau(  39) = (   0.1548874   1.7351756   1.1387043  )
        40        H      tau(  40) = (  -0.0039883   0.8587603   0.5654633  )
        41        H      tau(  41) = (   0.6619070   0.8587603   1.3304331  )
        42        H      tau(  42) = (   0.5185899   0.0270183   0.5771313  )
        43        H      tau(  43) = (   0.1393288   0.0270183   1.3187650  )
        44        Fe     tau(  44) = (  -0.1710407   0.0017817   0.9479482  )

[...]
     The core correction contribution to forces
     atom    1 type  4   force =    -0.00000000   -0.00149942   -0.00000000
     atom    2 type  4   force =     0.00000000    0.00153705   -0.00000000
     atom    3 type  5   force =    -0.00000000    0.00022063   -0.00000000
     atom    4 type  5   force =     0.00000000   -0.00040627   -0.00000000
     atom    5 type  5   force =    -0.00000000   -0.00082743    0.00000000
     atom    6 type  5   force =     0.00000000    0.00026398   -0.00000000
     atom    7 type  5   force =    -0.00000000    0.00039042   -0.00000000
     atom    8 type  7   force =     0.00223426    0.00959296    0.00444819
     atom    9 type  7   force =    -0.00223432    0.00959297   -0.00444810
     atom   10 type  7   force =     0.00033816    0.00362303   -0.01187684
     atom   11 type  7   force =    -0.00033815    0.00362303    0.01187679
     atom   12 type  7   force =    -0.00101972   -0.01142522    0.01077219
     atom   13 type  7   force =     0.00101970   -0.01142520   -0.01077232
     atom   14 type  1   force =    -0.00082856   -0.00235778   -0.01068838
     atom   15 type  1   force =     0.00082852   -0.00235778    0.01068844
     atom   16 type  6   force =     0.00081104    0.00146935    0.00599393
     atom   17 type  6   force =    -0.00081106    0.00146934   -0.00599393
     atom   18 type  6   force =    -0.00112840   -0.00120185   -0.00652009
     atom   19 type  6   force =     0.00112840   -0.00120185    0.00652010
     atom   20 type  6   force =     0.00013595   -0.00017688    0.00688228
     atom   21 type  6   force =    -0.00013596   -0.00017688   -0.00688227
     atom   22 type  6   force =     0.00004986    0.00004540   -0.00324788
     atom   23 type  6   force =    -0.00004987    0.00004540    0.00324787
     atom   24 type  6   force =     0.00465486   -0.00181703   -0.00573666
     atom   25 type  6   force =    -0.00465487   -0.00181703    0.00573663
     atom   26 type  6   force =    -0.00360350    0.00080645   -0.00741821
     atom   27 type  6   force =     0.00360352    0.00080645    0.00741817
     atom   28 type  6   force =    -0.00164417    0.00228841    0.00724612
     atom   29 type  6   force =     0.00164417    0.00228841   -0.00724614
     atom   30 type  6   force =     0.00094811   -0.00222965   -0.00745301
     atom   31 type  6   force =    -0.00094811   -0.00222965    0.00745303
     atom   32 type  6   force =    -0.00247691   -0.00350588   -0.00648551
     atom   33 type  6   force =     0.00247690   -0.00350588    0.00648552
     atom   34 type  6   force =     0.00093467    0.00430353    0.00637084
     atom   35 type  6   force =    -0.00093467    0.00430353   -0.00637083
     atom   36 type  6   force =    -0.00016346    0.00055204    0.01139273
     atom   37 type  6   force =     0.00016347    0.00055205   -0.01139276
     atom   38 type  6   force =    -0.00338051   -0.00139043    0.01051229
     atom   39 type  6   force =     0.00338051   -0.00139043   -0.01051229
     atom   40 type  3   force =     0.00000000    0.00000000    0.00000000
     atom   41 type  3   force =     0.00000000    0.00000000    0.00000000
     atom   42 type  3   force =     0.00000000    0.00000000    0.00000000
     atom   43 type  3   force =     0.00000000    0.00000000    0.00000000
     atom   44 type  2   force =     0.00000000   -0.00046295    0.00000000
     The Hubbard contrib.    to forces
     atom    1 type  4   force =     0.00000000    0.00000000    0.00000000
     atom    2 type  4   force =     0.00000000    0.00000000    0.00000000
     atom    3 type  5   force =     0.00000000    0.00000000    0.00000000
     atom    4 type  5   force =     0.00000000    0.00000000    0.00000000
     atom    5 type  5   force =     0.00000000    0.00000000    0.00000000
     atom    6 type  5   force =     0.00000000    0.00000000    0.00000000
     atom    7 type  5   force =     0.00000000    0.00000000    0.00000000
     atom    8 type  7   force =     0.00000000    0.00000000    0.00000000
     atom    9 type  7   force =     0.00000000    0.00000000    0.00000000
     atom   10 type  7   force =     0.00000000    0.00000000    0.00000000
     atom   11 type  7   force =     0.00000000    0.00000000    0.00000000
     atom   12 type  7   force =     0.00000000    0.00000000    0.00000000
     atom   13 type  7   force =     0.00000000    0.00000000    0.00000000
     atom   14 type  1   force =     0.00000000    0.00000000    0.00000000
     atom   15 type  1   force =     0.00000000    0.00000000    0.00000000
     atom   16 type  6   force =     0.00000000    0.00000000    0.00000000
     atom   17 type  6   force =     0.00000000    0.00000000    0.00000000
     atom   18 type  6   force =     0.00000000    0.00000000    0.00000000
     atom   19 type  6   force =     0.00000000    0.00000000    0.00000000
     atom   20 type  6   force =     0.00000000    0.00000000    0.00000000
     atom   21 type  6   force =     0.00000000    0.00000000    0.00000000
     atom   22 type  6   force =     0.00000000    0.00000000    0.00000000
     atom   23 type  6   force =     0.00000000    0.00000000    0.00000000
     atom   24 type  6   force =     0.00000000    0.00000000    0.00000000
     atom   25 type  6   force =     0.00000000    0.00000000    0.00000000
     atom   26 type  6   force =     0.00000000    0.00000000    0.00000000
     atom   27 type  6   force =     0.00000000    0.00000000    0.00000000
     atom   28 type  6   force =     0.00000000    0.00000000    0.00000000
     atom   29 type  6   force =     0.00000000    0.00000000    0.00000000
     atom   30 type  6   force =     0.00000000    0.00000000    0.00000000
     atom   31 type  6   force =     0.00000000    0.00000000    0.00000000
     atom   32 type  6   force =     0.00000000    0.00000000    0.00000000
     atom   33 type  6   force =     0.00000000    0.00000000    0.00000000
     atom   34 type  6   force =     0.00000000    0.00000000    0.00000000
     atom   35 type  6   force =     0.00000000    0.00000000    0.00000000
     atom   36 type  6   force =     0.00000000    0.00000000    0.00000000
     atom   37 type  6   force =     0.00000000    0.00000000    0.00000000
     atom   38 type  6   force =     0.00000000    0.00000000    0.00000000
     atom   39 type  6   force =     0.00000000    0.00000000    0.00000000
     atom   40 type  3   force =     0.00000000    0.00000000    0.00000000
     atom   41 type  3   force =     0.00000000    0.00000000    0.00000000
     atom   42 type  3   force =     0.00000000    0.00000000    0.00000000
     atom   43 type  3   force =     0.00000000    0.00000000    0.00000000
     atom   44 type  2   force =     0.00000000    0.00000000    0.00000000
     The SCF correction term to forces
     atom    1 type  4   force =     0.00000000   -0.00000809   -0.00000000
     atom    2 type  4   force =    -0.00000000    0.00000847    0.00000000
     atom    3 type  5   force =     0.00000000    0.00001164    0.00000000
     atom    4 type  5   force =     0.00000000   -0.00000948    0.00000000
     atom    5 type  5   force =    -0.00000000    0.00000665   -0.00000000
     atom    6 type  5   force =    -0.00000000   -0.00000416    0.00000000
     atom    7 type  5   force =    -0.00000000   -0.00000410    0.00000000
     atom    8 type  7   force =     0.00000168    0.00000248   -0.00000050
     atom    9 type  7   force =    -0.00000168    0.00000248    0.00000050
     atom   10 type  7   force =    -0.00000031    0.00000068   -0.00000425
     atom   11 type  7   force =     0.00000031    0.00000068    0.00000425
     atom   12 type  7   force =    -0.00000086   -0.00000363    0.00000461
     atom   13 type  7   force =     0.00000086   -0.00000363   -0.00000461
     atom   14 type  1   force =     0.00000021    0.00000015    0.00000086
     atom   15 type  1   force =    -0.00000021    0.00000015   -0.00000086
     atom   16 type  6   force =     0.00000158   -0.00000116   -0.00000132
     atom   17 type  6   force =    -0.00000158   -0.00000116    0.00000132
     atom   18 type  6   force =    -0.00000271   -0.00000412    0.00000383
     atom   19 type  6   force =     0.00000271   -0.00000412   -0.00000383
     atom   20 type  6   force =     0.00000011    0.00000106    0.00000487
     atom   21 type  6   force =    -0.00000011    0.00000106   -0.00000487
     atom   22 type  6   force =    -0.00000057    0.00000458   -0.00000736
     atom   23 type  6   force =     0.00000057    0.00000458    0.00000736
     atom   24 type  6   force =    -0.00000420   -0.00000569   -0.00000313
     atom   25 type  6   force =     0.00000420   -0.00000569    0.00000313
     atom   26 type  6   force =     0.00000358    0.00000011    0.00000984
     atom   27 type  6   force =    -0.00000358    0.00000011   -0.00000984
     atom   28 type  6   force =     0.00000178    0.00000153   -0.00001178
     atom   29 type  6   force =    -0.00000178    0.00000153    0.00001178
     atom   30 type  6   force =     0.00000119    0.00000300    0.00001161
     atom   31 type  6   force =    -0.00000119    0.00000300   -0.00001161
     atom   32 type  6   force =    -0.00000227    0.00000231   -0.00000240
     atom   33 type  6   force =     0.00000227    0.00000231    0.00000240
     atom   34 type  6   force =    -0.00000517   -0.00000144    0.00000488
     atom   35 type  6   force =     0.00000517   -0.00000144   -0.00000488
     atom   36 type  6   force =    -0.00000055    0.00000307    0.00000431
     atom   37 type  6   force =     0.00000055    0.00000307   -0.00000431
     atom   38 type  6   force =    -0.00000286   -0.00000302    0.00000035
     atom   39 type  6   force =     0.00000286   -0.00000302   -0.00000035
     atom   40 type  3   force =     0.00000003    0.00000049    0.00000261
     atom   41 type  3   force =    -0.00000003    0.00000049   -0.00000261
     atom   42 type  3   force =    -0.00000040   -0.00000051    0.00000138
     atom   43 type  3   force =     0.00000040   -0.00000051   -0.00000138
     atom   44 type  2   force =     0.00000000   -0.00000309    0.00000000

     DFT-D3 dispersion contribution to forces:
     atom    1 type  4   force =    -0.00000000    0.00093577    0.00000000
     atom    2 type  4   force =     0.00000000   -0.00070919   -0.00000000
     atom    3 type  5   force =     0.00000000    0.00049865   -0.00000000
     atom    4 type  5   force =    -0.00000000   -0.00089299    0.00000000
     atom    5 type  5   force =     0.00000000   -0.00060801    0.00000000
     atom    6 type  5   force =     0.00000000    0.00144168   -0.00000000
     atom    7 type  5   force =     0.00000000   -0.00043206   -0.00000000
     atom    8 type  7   force =     0.00008194   -0.00016846   -0.00006240
     atom    9 type  7   force =    -0.00008194   -0.00016846    0.00006240
     atom   10 type  7   force =    -0.00000027    0.00013521    0.00000401
     atom   11 type  7   force =     0.00000027    0.00013521   -0.00000401
     atom   12 type  7   force =    -0.00004773    0.00011566   -0.00018760
     atom   13 type  7   force =     0.00004773    0.00011566    0.00018760
     atom   14 type  1   force =     0.00007569    0.00015527   -0.00091316
     atom   15 type  1   force =    -0.00007569    0.00015527    0.00091316
     atom   16 type  6   force =     0.00000260    0.00013386    0.00043391
     atom   17 type  6   force =    -0.00000260    0.00013386   -0.00043391
     atom   18 type  6   force =     0.00000366   -0.00003528   -0.00036853
     atom   19 type  6   force =    -0.00000366   -0.00003528    0.00036853
     atom   20 type  6   force =    -0.00000603   -0.00007131    0.00042440
     atom   21 type  6   force =     0.00000603   -0.00007131   -0.00042441
     atom   22 type  6   force =    -0.00004329   -0.00001093    0.00005493
     atom   23 type  6   force =     0.00004329   -0.00001093   -0.00005493
     atom   24 type  6   force =    -0.00015577    0.00095352    0.00030870
     atom   25 type  6   force =     0.00015577    0.00095353   -0.00030870
     atom   26 type  6   force =     0.00086782    0.00007664    0.00022117
     atom   27 type  6   force =    -0.00086782    0.00007664   -0.00022117
     atom   28 type  6   force =     0.00036182   -0.00054831   -0.00002331
     atom   29 type  6   force =    -0.00036183   -0.00054832    0.00002331
     atom   30 type  6   force =    -0.00021230    0.00034888   -0.00000459
     atom   31 type  6   force =     0.00021230    0.00034888    0.00000459
     atom   32 type  6   force =     0.00094402   -0.00043453    0.00042548
     atom   33 type  6   force =    -0.00094402   -0.00043454   -0.00042548
     atom   34 type  6   force =     0.00066326   -0.00054644   -0.00042310
     atom   35 type  6   force =    -0.00066326   -0.00054644    0.00042310
     atom   36 type  6   force =    -0.00000868   -0.00003575   -0.00047432
     atom   37 type  6   force =     0.00000868   -0.00003575    0.00047432
     atom   38 type  6   force =    -0.00008246    0.00004200   -0.00056231
     atom   39 type  6   force =     0.00008246    0.00004200    0.00056231
     atom   40 type  3   force =    -0.00003632    0.00009541   -0.00023517
     atom   41 type  3   force =     0.00003632    0.00009541    0.00023517
     atom   42 type  3   force =    -0.00021584   -0.00035771   -0.00027176
     atom   43 type  3   force =     0.00021584   -0.00035771    0.00027176
     atom   44 type  2   force =    -0.00000000    0.00007068   -0.00000000

     Total force =     0.003963     Total SCF correction =     0.000045

     DFT-D3 dispersion Force =     0.004363

     Computing stress (Cartesian axis) and pressure

          total   stress  (Ry/bohr**3)                   (kbar)     P=       -0.28
  -0.00000343   0.00000000   0.00000320           -0.50        0.00        0.47
   0.00000000   0.00000038   0.00000000            0.00        0.06        0.00
   0.00000320   0.00000000  -0.00000274            0.47        0.00       -0.40

     kinetic stress (kbar)  20348.53      0.00     20.23
                                0.00  20348.43      0.00
                               20.23      0.00  20048.35

     local   stress (kbar) -42392.46      0.00    217.52
                                0.00 -41413.14      0.00
                              217.52      0.00  20302.23

     nonloc. stress (kbar)   3828.93      0.00     -2.18
                                0.00   3830.89      0.00
                               -2.18      0.00   3815.31

     hartree stress (kbar)  23810.54      0.00    -94.70
                                0.00  23345.74     -0.00
                              -94.70     -0.00  -6858.90

     exc-cor stress (kbar)  -2847.40     -0.00     -0.07
                               -0.00  -2847.71      0.00
                               -0.07      0.00  -2844.57

     corecor stress (kbar)  -1877.81      0.00     -0.06
                                0.00  -1877.96     -0.00
                               -0.06     -0.00  -1879.29

     ewald   stress (kbar)   -855.85     -0.00   -140.42
                               -0.00  -1370.96     -0.00
                             -140.42     -0.00 -32572.41

     hubbard stress (kbar)      0.00      0.00      0.00
                                0.00      0.00      0.00
                                0.00      0.00      0.00

     DFT-D   stress (kbar)    -15.00      0.00      0.15
                                0.00    -15.24     -0.00
                                0.15     -0.00    -11.12

     XDM     stress (kbar)      0.00      0.00      0.00
                                0.00      0.00      0.00
                                0.00      0.00      0.00

     dft-nl  stress (kbar)      0.00      0.00      0.00
                                0.00      0.00      0.00
                                0.00      0.00      0.00

     TS-vdW  stress (kbar)      0.00      0.00      0.00
                                0.00      0.00      0.00
                                0.00      0.00      0.00

     MDB     stress (kbar)      0.00      0.00      0.00
                                0.00      0.00      0.00
                                0.00      0.00      0.00

     3D-RISM stress (kbar)      0.00      0.00      0.00
                                0.00      0.00      0.00
                                0.00      0.00      0.00

     Writing all to output data dir ./temp/phl-fe1-fe1-nspin.save/ :
     XML data file, charge density, pseudopotentials, collected wavefunctions

     General routines

     Parallel routines

     PAW routines

   This run was terminated on:   2:12:24   4Jan2025

   JOB DONE.