     Program PWSCF v.7.3.1 starts on 24May2025 at 11:48:32

     Reading input from vc_relax.in

     Current dimensions of program PWSCF are:
     Max number of different atomic species (ntypx) = 10
     Max number of k-points (npk) =  40000
     Max angular momentum in pseudopotentials (lmaxx) =  4
     file Al.pbe-n-kjpaw_psl.1.0.0.UPF: wavefunction(s)  3S 3P renormalized
     file H.pbe-kjpaw_psl.1.0.0.UPF: wavefunction(s)  1S renormalized
     file K.pbe-spn-kjpaw_psl.1.0.0.UPF: wavefunction(s)  3S renormalized
     file Mg.pbe-spnl-kjpaw_psl.1.0.0.UPF: wavefunction(s)  2P renormalized
     file O.pbe-n-kjpaw_psl.1.0.0.UPF: wavefunction(s)  2S 2P renormalized
     file Si.pbe-n-kjpaw_psl.1.0.0.UPF: wavefunction(s)  3S 3P renormalized

     R & G space division:  proc/nbgrp/npool/nimage =       6
     Subspace diagonalization in iterative solution of the eigenvalue problem:
     a serial algorithm will be used

     Using Slab Decomposition

     bravais-lattice index     =          -12
     lattice parameter (alat)  =      10.0136  a.u.
     unit-cell volume          =    3303.4414 (a.u.)^3
     number of atoms/cell      =           44
     number of atomic types    =            6
     number of electrons       =       256.00
     number of Kohn-Sham states=          128
     kinetic-energy cutoff     =      65.0000  Ry
     charge density cutoff     =     520.0000  Ry
     scf convergence threshold =      1.0E-08
     mixing beta               =       0.7000
     number of iterations used =            8  plain     mixing
     energy convergence thresh.=      1.0E-05
     force convergence thresh. =      5.0E-04
     press convergence thresh. =      1.0E-01
     Exchange-correlation= SLA  PW   PBX  PBC
                           (   1   4   3   4   0   0   0)
     nstep                     =          100

     celldm(1)=  10.013640  celldm(2)=   1.735306  celldm(3)=   1.926511
     celldm(4)=   0.000000  celldm(5)=  -0.177565  celldm(6)=   0.000000

     crystal axes: (cart. coord. in units of alat)
               a(1) = (   1.000000   0.000000   0.000000 )
               a(2) = (   0.000000   1.735306   0.000000 )
               a(3) = (  -0.342081   0.000000   1.895896 )

     reciprocal axes: (cart. coord. in units 2 pi/alat)
               b(1) = (  1.000000 -0.000000  0.180432 )
               b(2) = (  0.000000  0.576267 -0.000000 )
               b(3) = (  0.000000  0.000000  0.527455 )

     PseudoPot. # 1 for Al read from file:
     ./../../pseudos/Al.pbe-n-kjpaw_psl.1.0.0.UPF
     MD5 check sum: 502b6b27b9c6270cab5dd1084b96fa6d
     Pseudo is Projector augmented-wave + core cor, Zval =  3.0
     Generated using &quot;atomic&quot; code by A. Dal Corso  v.6.3
     Shape of augmentation charge: PSQ
     Using radial grid of 1135 points,  6 beta functions with:
                l(1) =   0
                l(2) =   0
                l(3) =   1
                l(4) =   1
                l(5) =   2
                l(6) =   2
     Q(r) pseudized with 0 coefficients

     PseudoPot. # 2 for H  read from file:
     ./../../pseudos/H.pbe-kjpaw_psl.1.0.0.UPF
     MD5 check sum: d81a744832360e4a8af0b0b5b123bc2a
     Pseudo is Projector augmented-wave, Zval =  1.0
     Generated using &quot;atomic&quot; code by A. Dal Corso  v.6.3MaX
     Shape of augmentation charge: PSQ
     Using radial grid of  929 points,  2 beta functions with:
                l(1) =   0
                l(2) =   0
     Q(r) pseudized with 0 coefficients

     PseudoPot. # 3 for K  read from file:
     ./../../pseudos/K.pbe-spn-kjpaw_psl.1.0.0.UPF
     MD5 check sum: 34cc42130a09071ebe376fd42eb21491
     Pseudo is Projector augmented-wave + core cor, Zval =  9.0
     Generated using &quot;atomic&quot; code by A. Dal Corso  v.6.2.2
     Shape of augmentation charge: PSQ
     Using radial grid of 1165 points,  6 beta functions with:
                l(1) =   0
                l(2) =   0
                l(3) =   1
                l(4) =   1
                l(5) =   2
                l(6) =   2
     Q(r) pseudized with 0 coefficients

     PseudoPot. # 4 for Mg read from file:
     ./../../pseudos/Mg.pbe-spnl-kjpaw_psl.1.0.0.UPF
     MD5 check sum: fda14e0d92a6a9a5ebed782e5a4b3067
     Pseudo is Projector augmented-wave + core cor, Zval = 10.0
     Generated using &quot;atomic&quot; code by A. Dal Corso  v.6.3
     Shape of augmentation charge: PSQ
     Using radial grid of 1129 points,  4 beta functions with:
                l(1) =   0
                l(2) =   0
                l(3) =   1
                l(4) =   1
     Q(r) pseudized with 0 coefficients

     PseudoPot. # 5 for O  read from file:
     ./../../pseudos/O.pbe-n-kjpaw_psl.1.0.0.UPF
     MD5 check sum: e99d9cef9b487d1ca56f5b95ecd0fd7a
     Pseudo is Projector augmented-wave + core cor, Zval =  6.0
     Generated using &quot;atomic&quot; code by A. Dal Corso  v.6.3
     Shape of augmentation charge: PSQ
     Using radial grid of 1095 points,  4 beta functions with:
                l(1) =   0
                l(2) =   0
                l(3) =   1
                l(4) =   1
     Q(r) pseudized with 0 coefficients

     PseudoPot. # 6 for Si read from file:
     ./../../pseudos/Si.pbe-n-kjpaw_psl.1.0.0.UPF
     MD5 check sum: c39c59da582df4a0d9f10159256ea34e
     Pseudo is Projector augmented-wave + core cor, Zval =  4.0
     Generated using &quot;atomic&quot; code by A. Dal Corso  v.6.3
     Shape of augmentation charge: PSQ
     Using radial grid of 1141 points,  6 beta functions with:
                l(1) =   0
                l(2) =   0
                l(3) =   1
                l(4) =   1
                l(5) =   2
                l(6) =   2
     Q(r) pseudized with 0 coefficients

     atomic species   valence    mass     pseudopotential
     Al                3.00    26.98154     Al( 1.00)
     H                 1.00     1.00794     H ( 1.00)
     K                 9.00    39.09830     K ( 1.00)
     Mg               10.00    24.30500     Mg( 1.00)
     O                 6.00    15.99940     O ( 1.00)
     Si                4.00    28.08550     Si( 1.00)

      2 Sym. Ops. (no inversion) found

                                    s                        frac. trans.

      isym =  1     identity

 cryst.   s( 1) = (     1          0          0      )
                  (     0          1          0      )
                  (     0          0          1      )

 cart.    s( 1) = (  1.0000000  0.0000000 -0.0000000 )
                  (  0.0000000  1.0000000  0.0000000 )
                  (  0.0000000  0.0000000  1.0000000 )

      isym =  2     180 deg rotation - cart. axis [0,1,0]

[...]

     point group C_2  (2)
     there are  2 classes
     the character table:

       E     C2
A      1.00  1.00
B      1.00 -1.00

     the symmetry operations in each class and the name of the first element:

     E        1
          identity
     C2       2
          180 deg rotation - cart. axis [0,1,0]

   Cartesian axes

     site n.     atom                  positions (alat units)
         1        K      tau(   1) = (   0.0000000   0.8574387   0.0000000  )
         2        K      tau(   2) = (   0.5000000   0.0040962   0.0000000  )
         3        Mg     tau(   3) = (  -0.1710407   0.0076343   0.9479482  )
         4        Mg     tau(   4) = (  -0.1710407   0.5784165   0.9479482  )
         5        Mg     tau(   5) = (  -0.1710407   1.1545535   0.9479482  )
         6        Mg     tau(   6) = (   0.3289593   0.8554743   0.9479482  )
         7        Mg     tau(   7) = (   0.3289593   1.4485893   0.9479482  )
         8        Mg     tau(   8) = (   0.3289593   0.2990799   0.9479482  )
         9        Si     tau(   9) = (   0.0080051   0.2864614   0.4210997  )
        10        Si     tau(  10) = (   0.6499135   0.2864614   1.4747968  )
        11        Si     tau(  11) = (   0.6715793   1.4478090   1.4625699  )
        12        Si     tau(  12) = (  -0.0136605   1.4478090   0.4333265  )
        13        Si     tau(  13) = (   0.4856518   1.1564173   0.4294170  )
        14        Si     tau(  14) = (   0.1722670   1.1564173   1.4664794  )
        15        Al     tau(  15) = (   0.1493529   0.5742774   1.4715621  )
        16        Al     tau(  16) = (   0.5085658   0.5742774   0.4243343  )
        17        O      tau(  17) = (  -0.0040177   0.2842465   0.7290176  )
        18        O      tau(  18) = (   0.6619363   0.2842465   1.1668789  )
        19        O      tau(  19) = (   0.6662769   1.4458882   1.1572444  )
        20        O      tau(  20) = (  -0.0083582   1.4458882   0.7386520  )
        21        O      tau(  21) = (   0.4920583   1.1610800   0.7360613  )
        22        O      tau(  22) = (   0.1658604   1.1610800   1.1598351  )
        23        O      tau(  23) = (   0.1544948   0.5776785   1.1451105  )
        24        O      tau(  24) = (   0.5034239   0.5776785   0.7507859  )
        25        O      tau(  25) = (   0.2882705   0.3495372   0.3126384  )
        26        O      tau(  26) = (   0.3696483   0.3495372   1.5832580  )
        27        O      tau(  27) = (   0.9370462   1.7306290   0.3171480  )
        28        O      tau(  28) = (  -0.2791275   1.7306290   1.5787483  )
        29        O      tau(  29) = (   0.3994499   1.3453682   1.5761443  )
        30        O      tau(  30) = (   0.2584688   1.3453682   0.3197521  )
        31        O      tau(  31) = (   0.7575892   1.2696419   0.3179629  )
        32        O      tau(  32) = (  -0.0996705   1.2696419   1.5779335  )
        33        O      tau(  33) = (   0.4395390   0.8809890   0.3064248  )
        34        O      tau(  34) = (   0.2183796   0.8809890   1.5894716  )
        35        O      tau(  35) = (  -0.1464761   0.4819478   1.5949252  )
        36        O      tau(  36) = (   0.8043948   0.4819478   0.3009711  )
        37        O      tau(  37) = (  -0.0042927   0.8748293   0.7472332  )
        38        O      tau(  38) = (   0.6622114   0.8748293   1.1486632  )
        39        O      tau(  39) = (   0.4965245   1.7343632   0.7537308  )
        40        O      tau(  40) = (   0.1613942   1.7343632   1.1421655  )
        41        H      tau(  41) = (  -0.0028331   0.8575108   0.5659390  )
        42        H      tau(  42) = (   0.6607519   0.8575108   1.3299574  )
        43        H      tau(  43) = (   0.4911078   0.0270477   0.5736230  )
        44        H      tau(  44) = (   0.1668109   0.0270477   1.3222734  )

     DFT-D3 Dispersion Correction (3-body terms):
       Reference C6 values for interpolation:

         atom   Coordination number   C6
         H          0.912             6.05
         H          0.000            15.18
         O          0.000            31.01
         O          0.993            25.63
         O          1.989            20.74
         Mg         0.000          1366.75
         Mg         0.963           902.54
         Mg         1.950           351.12
         Al         0.000          1081.08
         Al         0.965           875.51
         Al         1.931           513.50
         Al         2.915           307.19
         Si         0.000           635.71
[...]
     The core correction contribution to forces
     atom    1 type  3   force =    -0.00000000   -0.00153665    0.00000000
     atom    2 type  3   force =    -0.00000000    0.00161307   -0.00000000
     atom    3 type  4   force =     0.00000000    0.00021573   -0.00000000
     atom    4 type  4   force =     0.00000000    0.00031226   -0.00000000
     atom    5 type  4   force =    -0.00000000   -0.00042398   -0.00000000
     atom    6 type  4   force =     0.00000000   -0.00086557   -0.00000000
     atom    7 type  4   force =    -0.00000000    0.00032185    0.00000000
     atom    8 type  4   force =     0.00000000    0.00042651   -0.00000000
     atom    9 type  6   force =     0.00222384    0.01055133    0.00595412
     atom   10 type  6   force =    -0.00222388    0.01055134   -0.00595403
     atom   11 type  6   force =     0.00037894    0.00326418   -0.01356733
     atom   12 type  6   force =    -0.00037890    0.00326418    0.01356729
     atom   13 type  6   force =    -0.00151077   -0.01165217    0.01079206
     atom   14 type  6   force =     0.00151081   -0.01165217   -0.01079211
     atom   15 type  1   force =    -0.00057596   -0.00230737   -0.01035010
     atom   16 type  1   force =     0.00057595   -0.00230737    0.01035014
     atom   17 type  5   force =    -0.00014378    0.00021141    0.00648254
     atom   18 type  5   force =     0.00014376    0.00021141   -0.00648253
     atom   19 type  5   force =    -0.00009715    0.00008036   -0.00698666
     atom   20 type  5   force =     0.00009715    0.00008036    0.00698665
     atom   21 type  5   force =     0.00006057   -0.00021745    0.00684685
     atom   22 type  5   force =    -0.00006059   -0.00021745   -0.00684685
     atom   23 type  5   force =     0.00007894    0.00005994   -0.00322260
     atom   24 type  5   force =    -0.00007894    0.00005994    0.00322260
     atom   25 type  5   force =     0.00459671   -0.00174154   -0.00580823
     atom   26 type  5   force =    -0.00459671   -0.00174154    0.00580821
     atom   27 type  5   force =    -0.00344491    0.00079405   -0.00709769
     atom   28 type  5   force =     0.00344492    0.00079405    0.00709766
     atom   29 type  5   force =    -0.00163794    0.00235096    0.00728209
     atom   30 type  5   force =     0.00163794    0.00235097   -0.00728211
     atom   31 type  5   force =     0.00090688   -0.00218384   -0.00745626
     atom   32 type  5   force =    -0.00090688   -0.00218385    0.00745626
     atom   33 type  5   force =    -0.00243799   -0.00349176   -0.00646997
     atom   34 type  5   force =     0.00243798   -0.00349177    0.00646997
     atom   35 type  5   force =     0.00110458    0.00410111    0.00642153
     atom   36 type  5   force =    -0.00110458    0.00410111   -0.00642155
     atom   37 type  5   force =    -0.00008874    0.00049356    0.01132299
     atom   38 type  5   force =     0.00008876    0.00049356   -0.01132296
     atom   39 type  5   force =    -0.00004893   -0.00133449    0.01109257
     atom   40 type  5   force =     0.00004895   -0.00133447   -0.01109253
     atom   41 type  2   force =     0.00000000    0.00000000    0.00000000
     atom   42 type  2   force =     0.00000000    0.00000000    0.00000000
     atom   43 type  2   force =     0.00000000    0.00000000    0.00000000
     atom   44 type  2   force =     0.00000000    0.00000000    0.00000000
     The Hubbard contrib.    to forces
     atom    1 type  3   force =     0.00000000    0.00000000    0.00000000
     atom    2 type  3   force =     0.00000000    0.00000000    0.00000000
     atom    3 type  4   force =     0.00000000    0.00000000    0.00000000
     atom    4 type  4   force =     0.00000000    0.00000000    0.00000000
     atom    5 type  4   force =     0.00000000    0.00000000    0.00000000
     atom    6 type  4   force =     0.00000000    0.00000000    0.00000000
     atom    7 type  4   force =     0.00000000    0.00000000    0.00000000
     atom    8 type  4   force =     0.00000000    0.00000000    0.00000000
     atom    9 type  6   force =     0.00000000    0.00000000    0.00000000
     atom   10 type  6   force =     0.00000000    0.00000000    0.00000000
     atom   11 type  6   force =     0.00000000    0.00000000    0.00000000
     atom   12 type  6   force =     0.00000000    0.00000000    0.00000000
     atom   13 type  6   force =     0.00000000    0.00000000    0.00000000
     atom   14 type  6   force =     0.00000000    0.00000000    0.00000000
     atom   15 type  1   force =     0.00000000    0.00000000    0.00000000
     atom   16 type  1   force =     0.00000000    0.00000000    0.00000000
     atom   17 type  5   force =     0.00000000    0.00000000    0.00000000
     atom   18 type  5   force =     0.00000000    0.00000000    0.00000000
     atom   19 type  5   force =     0.00000000    0.00000000    0.00000000
     atom   20 type  5   force =     0.00000000    0.00000000    0.00000000
     atom   21 type  5   force =     0.00000000    0.00000000    0.00000000
     atom   22 type  5   force =     0.00000000    0.00000000    0.00000000
     atom   23 type  5   force =     0.00000000    0.00000000    0.00000000
     atom   24 type  5   force =     0.00000000    0.00000000    0.00000000
     atom   25 type  5   force =     0.00000000    0.00000000    0.00000000
     atom   26 type  5   force =     0.00000000    0.00000000    0.00000000
     atom   27 type  5   force =     0.00000000    0.00000000    0.00000000
     atom   28 type  5   force =     0.00000000    0.00000000    0.00000000
     atom   29 type  5   force =     0.00000000    0.00000000    0.00000000
     atom   30 type  5   force =     0.00000000    0.00000000    0.00000000
     atom   31 type  5   force =     0.00000000    0.00000000    0.00000000
     atom   32 type  5   force =     0.00000000    0.00000000    0.00000000
     atom   33 type  5   force =     0.00000000    0.00000000    0.00000000
     atom   34 type  5   force =     0.00000000    0.00000000    0.00000000
     atom   35 type  5   force =     0.00000000    0.00000000    0.00000000
     atom   36 type  5   force =     0.00000000    0.00000000    0.00000000
     atom   37 type  5   force =     0.00000000    0.00000000    0.00000000
     atom   38 type  5   force =     0.00000000    0.00000000    0.00000000
     atom   39 type  5   force =     0.00000000    0.00000000    0.00000000
     atom   40 type  5   force =     0.00000000    0.00000000    0.00000000
     atom   41 type  2   force =     0.00000000    0.00000000    0.00000000
     atom   42 type  2   force =     0.00000000    0.00000000    0.00000000
     atom   43 type  2   force =     0.00000000    0.00000000    0.00000000
     atom   44 type  2   force =     0.00000000    0.00000000    0.00000000
     The SCF correction term to forces
     atom    1 type  3   force =    -0.00000000   -0.00000093    0.00000000
     atom    2 type  3   force =    -0.00000000    0.00000117    0.00000000
     atom    3 type  4   force =    -0.00000000    0.00000243   -0.00000000
     atom    4 type  4   force =     0.00000000   -0.00000104   -0.00000000
     atom    5 type  4   force =     0.00000000   -0.00000215   -0.00000000
     atom    6 type  4   force =    -0.00000000   -0.00000373   -0.00000000
     atom    7 type  4   force =     0.00000000    0.00000040    0.00000000
     atom    8 type  4   force =     0.00000000    0.00000411    0.00000000
     atom    9 type  6   force =    -0.00000020   -0.00000006   -0.00000265
     atom   10 type  6   force =     0.00000020   -0.00000006    0.00000265
     atom   11 type  6   force =     0.00000018    0.00000011    0.00000421
     atom   12 type  6   force =    -0.00000018    0.00000011   -0.00000421
     atom   13 type  6   force =     0.00000020    0.00000002   -0.00000307
     atom   14 type  6   force =    -0.00000020    0.00000002    0.00000307
     atom   15 type  1   force =    -0.00000008   -0.00000008    0.00000179
     atom   16 type  1   force =     0.00000008   -0.00000008   -0.00000179
     atom   17 type  5   force =    -0.00000005    0.00000081   -0.00000096
     atom   18 type  5   force =     0.00000005    0.00000081    0.00000096
     atom   19 type  5   force =    -0.00000015   -0.00000017    0.00000245
     atom   20 type  5   force =     0.00000015   -0.00000017   -0.00000245
     atom   21 type  5   force =     0.00000008   -0.00000102   -0.00000140
     atom   22 type  5   force =    -0.00000008   -0.00000102    0.00000140
     atom   23 type  5   force =     0.00000009   -0.00000030    0.00000198
     atom   24 type  5   force =    -0.00000009   -0.00000030   -0.00000198
     atom   25 type  5   force =     0.00000307    0.00000107   -0.00000335
     atom   26 type  5   force =    -0.00000307    0.00000107    0.00000335
     atom   27 type  5   force =    -0.00000104   -0.00000052   -0.00000488
     atom   28 type  5   force =     0.00000104   -0.00000052    0.00000488
     atom   29 type  5   force =     0.00000028    0.00000067    0.00000459
     atom   30 type  5   force =    -0.00000028    0.00000067   -0.00000459
     atom   31 type  5   force =     0.00000056   -0.00000009   -0.00000417
     atom   32 type  5   force =    -0.00000056   -0.00000009    0.00000417
     atom   33 type  5   force =     0.00000012   -0.00000285   -0.00000349
     atom   34 type  5   force =    -0.00000012   -0.00000285    0.00000349
     atom   35 type  5   force =     0.00000261    0.00000175    0.00000312
     atom   36 type  5   force =    -0.00000261    0.00000175   -0.00000312
     atom   37 type  5   force =    -0.00000018   -0.00000090   -0.00000288
     atom   38 type  5   force =     0.00000018   -0.00000090    0.00000288
     atom   39 type  5   force =    -0.00000020    0.00000126   -0.00000291
     atom   40 type  5   force =     0.00000020    0.00000126    0.00000291
     atom   41 type  2   force =    -0.00000003   -0.00000012   -0.00000063
     atom   42 type  2   force =     0.00000003   -0.00000012    0.00000063
     atom   43 type  2   force =     0.00000002    0.00000017   -0.00000065
     atom   44 type  2   force =    -0.00000002    0.00000017    0.00000065

     DFT-D3 dispersion contribution to forces:
     atom    1 type  3   force =    -0.00000000    0.00104162    0.00000000
     atom    2 type  3   force =    -0.00000000   -0.00091722   -0.00000000
     atom    3 type  4   force =     0.00000000    0.00032281   -0.00000000
     atom    4 type  4   force =    -0.00000000    0.00073409    0.00000000
     atom    5 type  4   force =    -0.00000000   -0.00110983    0.00000000
     atom    6 type  4   force =     0.00000000   -0.00063709    0.00000000
     atom    7 type  4   force =    -0.00000000    0.00111001    0.00000000
     atom    8 type  4   force =    -0.00000000   -0.00020427   -0.00000000
     atom    9 type  6   force =     0.00003689   -0.00007264   -0.00023302
     atom   10 type  6   force =    -0.00003689   -0.00007264    0.00023302
     atom   11 type  6   force =     0.00004303    0.00005453    0.00016267
     atom   12 type  6   force =    -0.00004303    0.00005453   -0.00016267
     atom   13 type  6   force =    -0.00003067    0.00015659   -0.00014736
     atom   14 type  6   force =     0.00003067    0.00015659    0.00014736
     atom   15 type  1   force =     0.00002193    0.00009625   -0.00101754
     atom   16 type  1   force =    -0.00002193    0.00009625    0.00101754
     atom   17 type  5   force =    -0.00000785    0.00005015    0.00046811
     atom   18 type  5   force =     0.00000785    0.00005015   -0.00046811
     atom   19 type  5   force =     0.00000139    0.00000929   -0.00040876
     atom   20 type  5   force =    -0.00000139    0.00000929    0.00040876
     atom   21 type  5   force =    -0.00001425   -0.00005063    0.00043615
     atom   22 type  5   force =     0.00001425   -0.00005063   -0.00043615
     atom   23 type  5   force =    -0.00002309   -0.00002465    0.00006792
     atom   24 type  5   force =     0.00002309   -0.00002465   -0.00006792
     atom   25 type  5   force =    -0.00018766    0.00098299    0.00030262
     atom   26 type  5   force =     0.00018766    0.00098299   -0.00030262
     atom   27 type  5   force =     0.00087263    0.00007741    0.00020519
     atom   28 type  5   force =    -0.00087263    0.00007741   -0.00020519
     atom   29 type  5   force =     0.00035525   -0.00053715    0.00001584
     atom   30 type  5   force =    -0.00035525   -0.00053715   -0.00001584
     atom   31 type  5   force =    -0.00020310    0.00032658   -0.00007614
     atom   32 type  5   force =     0.00020310    0.00032658    0.00007614
     atom   33 type  5   force =     0.00096817   -0.00043702    0.00041840
     atom   34 type  5   force =    -0.00096817   -0.00043702   -0.00041840
     atom   35 type  5   force =     0.00065296   -0.00049371   -0.00046833
     atom   36 type  5   force =    -0.00065296   -0.00049371    0.00046833
     atom   37 type  5   force =    -0.00000870   -0.00004253   -0.00048031
     atom   38 type  5   force =     0.00000870   -0.00004253    0.00048031
     atom   39 type  5   force =     0.00002270    0.00004731   -0.00050994
     atom   40 type  5   force =    -0.00002270    0.00004731    0.00050994
     atom   41 type  2   force =    -0.00000539    0.00006986   -0.00027375
     atom   42 type  2   force =     0.00000539    0.00006986    0.00027375
     atom   43 type  2   force =     0.00003986   -0.00038270   -0.00029124
     atom   44 type  2   force =    -0.00003986   -0.00038270    0.00029124

     Total force =     0.000595     Total SCF correction =     0.000021

     DFT-D3 dispersion Force =     0.004469

     Computing stress (Cartesian axis) and pressure

          total   stress  (Ry/bohr**3)                   (kbar)     P=       -0.09
  -0.00000034   0.00000000   0.00000002           -0.05        0.00        0.00
   0.00000000  -0.00000059   0.00000000            0.00       -0.09        0.00
   0.00000002   0.00000000  -0.00000092            0.00        0.00       -0.14

     kinetic stress (kbar)  18794.67      0.00     -2.79
                                0.00  18791.71      0.00
                               -2.79      0.00  18477.07

     local   stress (kbar) -36564.80      0.00    -62.62
                                0.00 -36301.14      0.00
                              -62.62      0.00  14079.55

     nonloc. stress (kbar)   4992.63      0.00     -0.42
                                0.00   4992.60      0.00
                               -0.42      0.00   4984.06

     hartree stress (kbar)  20102.06      0.00     24.59
                                0.00  19987.73      0.00
                               24.59      0.00  -4696.76

     exc-cor stress (kbar)  -2736.07     -0.00      0.02
                               -0.00  -2736.16      0.00
                                0.02      0.00  -2732.87

     corecor stress (kbar)  -1824.00      0.00      0.11
                                0.00  -1824.03     -0.00
                                0.11     -0.00  -1825.57

     ewald   stress (kbar)  -2749.49     -0.00     41.02
                               -0.00  -2895.61     -0.00
                               41.02     -0.00 -28274.51

     hubbard stress (kbar)      0.00      0.00      0.00
                                0.00      0.00      0.00
                                0.00      0.00      0.00

     DFT-D   stress (kbar)    -15.04      0.00      0.10
                                0.00    -15.20     -0.00
                                0.10     -0.00    -11.10

     XDM     stress (kbar)      0.00      0.00      0.00
                                0.00      0.00      0.00
                                0.00      0.00      0.00

     dft-nl  stress (kbar)      0.00      0.00      0.00
                                0.00      0.00      0.00
                                0.00      0.00      0.00

     TS-vdW  stress (kbar)      0.00      0.00      0.00
                                0.00      0.00      0.00
                                0.00      0.00      0.00

     MDB     stress (kbar)      0.00      0.00      0.00
                                0.00      0.00      0.00
                                0.00      0.00      0.00

     3D-RISM stress (kbar)      0.00      0.00      0.00
                                0.00      0.00      0.00
                                0.00      0.00      0.00

     Writing all to output data dir ./temp/phl-fe0-dftd3.save/ :
     XML data file, charge density, pseudopotentials, collected wavefunctions

     General routines

     Parallel routines

     PAW routines

   This run was terminated on:  16:56:27  26May2025

   JOB DONE.