     Program PWSCF v.7.3.1 starts on 26Dec2024 at 15:19:46

     Reading input from vc_relax.in

     Current dimensions of program PWSCF are:
     Max number of different atomic species (ntypx) = 10
     Max number of k-points (npk) =  40000
     Max angular momentum in pseudopotentials (lmaxx) =  4
     file Al.pbe-n-kjpaw_psl.1.0.0.UPF: wavefunction(s)  3S 3P renormalized
     file H.pbe-kjpaw_psl.1.0.0.UPF: wavefunction(s)  1S renormalized
     file K.pbe-spn-kjpaw_psl.1.0.0.UPF: wavefunction(s)  3S renormalized
     file Mg.pbe-spnl-kjpaw_psl.1.0.0.UPF: wavefunction(s)  2P renormalized
     file O.pbe-n-kjpaw_psl.1.0.0.UPF: wavefunction(s)  2S 2P renormalized
     file Si.pbe-n-kjpaw_psl.1.0.0.UPF: wavefunction(s)  3S 3P renormalized

     R & G space division:  proc/nbgrp/npool/nimage =       4
     Subspace diagonalization in iterative solution of the eigenvalue problem:
     a serial algorithm will be used

     Using Slab Decomposition

     bravais-lattice index     =          -12
     lattice parameter (alat)  =      10.0136  a.u.
     unit-cell volume          =    3303.4414 (a.u.)^3
     number of atoms/cell      =           44
     number of atomic types    =            6
     number of electrons       =       256.00
     number of Kohn-Sham states=          128
     kinetic-energy cutoff     =      60.0000  Ry
     charge density cutoff     =     480.0000  Ry
     scf convergence threshold =      1.0E-06
     mixing beta               =       0.7000
     number of iterations used =            8  plain     mixing
     energy convergence thresh.=      1.0E-04
     force convergence thresh. =      1.0E-03
     press convergence thresh. =      5.0E-01
     Exchange-correlation= SLA  PW   PBX  PBC
                           (   1   4   3   4   0   0   0)
     nstep                     =           50

     celldm(1)=  10.013640  celldm(2)=   1.735306  celldm(3)=   1.926511
     celldm(4)=   0.000000  celldm(5)=  -0.177565  celldm(6)=   0.000000

     crystal axes: (cart. coord. in units of alat)
               a(1) = (   1.000000   0.000000   0.000000 )
               a(2) = (   0.000000   1.735306   0.000000 )
               a(3) = (  -0.342081   0.000000   1.895896 )

     reciprocal axes: (cart. coord. in units 2 pi/alat)
               b(1) = (  1.000000 -0.000000  0.180432 )
               b(2) = (  0.000000  0.576267 -0.000000 )
               b(3) = (  0.000000  0.000000  0.527455 )

     PseudoPot. # 1 for Al read from file:
     ./../../pseudos/Al.pbe-n-kjpaw_psl.1.0.0.UPF
     MD5 check sum: 502b6b27b9c6270cab5dd1084b96fa6d
     Pseudo is Projector augmented-wave + core cor, Zval =  3.0
     Generated using &quot;atomic&quot; code by A. Dal Corso  v.6.3
     Shape of augmentation charge: PSQ
     Using radial grid of 1135 points,  6 beta functions with:
                l(1) =   0
                l(2) =   0
                l(3) =   1
                l(4) =   1
                l(5) =   2
                l(6) =   2
     Q(r) pseudized with 0 coefficients

     PseudoPot. # 2 for H  read from file:
     ./../../pseudos/H.pbe-kjpaw_psl.1.0.0.UPF
     MD5 check sum: d81a744832360e4a8af0b0b5b123bc2a
     Pseudo is Projector augmented-wave, Zval =  1.0
     Generated using &quot;atomic&quot; code by A. Dal Corso  v.6.3MaX
     Shape of augmentation charge: PSQ
     Using radial grid of  929 points,  2 beta functions with:
                l(1) =   0
                l(2) =   0
     Q(r) pseudized with 0 coefficients

     PseudoPot. # 3 for K  read from file:
     ./../../pseudos/K.pbe-spn-kjpaw_psl.1.0.0.UPF
     MD5 check sum: 34cc42130a09071ebe376fd42eb21491
     Pseudo is Projector augmented-wave + core cor, Zval =  9.0
     Generated using &quot;atomic&quot; code by A. Dal Corso  v.6.2.2
     Shape of augmentation charge: PSQ
     Using radial grid of 1165 points,  6 beta functions with:
                l(1) =   0
                l(2) =   0
                l(3) =   1
                l(4) =   1
                l(5) =   2
                l(6) =   2
     Q(r) pseudized with 0 coefficients

     PseudoPot. # 4 for Mg read from file:
     ./../../pseudos/Mg.pbe-spnl-kjpaw_psl.1.0.0.UPF
     MD5 check sum: fda14e0d92a6a9a5ebed782e5a4b3067
     Pseudo is Projector augmented-wave + core cor, Zval = 10.0
     Generated using &quot;atomic&quot; code by A. Dal Corso  v.6.3
     Shape of augmentation charge: PSQ
     Using radial grid of 1129 points,  4 beta functions with:
                l(1) =   0
                l(2) =   0
                l(3) =   1
                l(4) =   1
     Q(r) pseudized with 0 coefficients

     PseudoPot. # 5 for O  read from file:
     ./../../pseudos/O.pbe-n-kjpaw_psl.1.0.0.UPF
     MD5 check sum: e99d9cef9b487d1ca56f5b95ecd0fd7a
     Pseudo is Projector augmented-wave + core cor, Zval =  6.0
     Generated using &quot;atomic&quot; code by A. Dal Corso  v.6.3
     Shape of augmentation charge: PSQ
     Using radial grid of 1095 points,  4 beta functions with:
                l(1) =   0
                l(2) =   0
                l(3) =   1
                l(4) =   1
     Q(r) pseudized with 0 coefficients

     PseudoPot. # 6 for Si read from file:
     ./../../pseudos/Si.pbe-n-kjpaw_psl.1.0.0.UPF
     MD5 check sum: c39c59da582df4a0d9f10159256ea34e
     Pseudo is Projector augmented-wave + core cor, Zval =  4.0
     Generated using &quot;atomic&quot; code by A. Dal Corso  v.6.3
     Shape of augmentation charge: PSQ
     Using radial grid of 1141 points,  6 beta functions with:
                l(1) =   0
                l(2) =   0
                l(3) =   1
                l(4) =   1
                l(5) =   2
                l(6) =   2
     Q(r) pseudized with 0 coefficients

     atomic species   valence    mass     pseudopotential
     Al                3.00    26.98154     Al( 1.00)
     H                 1.00     1.00794     H ( 1.00)
     K                 9.00    39.09830     K ( 1.00)
     Mg               10.00    24.30500     Mg( 1.00)
     O                 6.00    15.99940     O ( 1.00)
     Si                4.00    28.08550     Si( 1.00)

      2 Sym. Ops. (no inversion) found

                                    s                        frac. trans.

      isym =  1     identity

 cryst.   s( 1) = (     1          0          0      )
                  (     0          1          0      )
                  (     0          0          1      )

 cart.    s( 1) = (  1.0000000  0.0000000 -0.0000000 )
                  (  0.0000000  1.0000000  0.0000000 )
                  (  0.0000000  0.0000000  1.0000000 )

      isym =  2     180 deg rotation - cart. axis [0,1,0]

[...]

     point group C_2  (2)
     there are  2 classes
     the character table:

       E     C2
A      1.00  1.00
B      1.00 -1.00

     the symmetry operations in each class and the name of the first element:

     E        1
          identity
     C2       2
          180 deg rotation - cart. axis [0,1,0]

   Cartesian axes

     site n.     atom                  positions (alat units)
         1        K      tau(   1) = (   0.0000000   0.8552589   0.0000000  )
         2        K      tau(   2) = (   0.5000000   0.0083241   0.0000000  )
         3        Mg     tau(   3) = (  -0.1710407   0.0074026   0.9479482  )
         4        Mg     tau(   4) = (  -0.1710407   0.5782728   0.9479482  )
         5        Mg     tau(   5) = (  -0.1710407   1.1542675   0.9479482  )
         6        Mg     tau(   6) = (   0.3289593   0.8558829   0.9479482  )
         7        Mg     tau(   7) = (   0.3289593   1.4482156   0.9479482  )
         8        Mg     tau(   8) = (   0.3289593   0.2988039   0.9479482  )
         9        Si     tau(   9) = (   0.0073229   0.2865013   0.4209525  )
        10        Si     tau(  10) = (   0.6505957   0.2865013   1.4749440  )
        11        Si     tau(  11) = (   0.6707627   1.4478389   1.4627579  )
        12        Si     tau(  12) = (  -0.0128440   1.4478389   0.4331386  )
        13        Si     tau(  13) = (   0.4864573   1.1565218   0.4289850  )
        14        Si     tau(  14) = (   0.1714614   1.1565218   1.4669113  )
        15        Al     tau(  15) = (   0.1499381   0.5745429   1.4713635  )
        16        Al     tau(  16) = (   0.5079806   0.5745429   0.4245329  )
        17        O      tau(  17) = (  -0.0042705   0.2839600   0.7288963  )
        18        O      tau(  18) = (   0.6621892   0.2839600   1.1670001  )
        19        O      tau(  19) = (   0.6657557   1.4457156   1.1573454  )
        20        O      tau(  20) = (  -0.0078369   1.4457156   0.7385510  )
        21        O      tau(  21) = (   0.4924130   1.1608158   0.7357073  )
        22        O      tau(  22) = (   0.1655057   1.1608158   1.1601890  )
        23        O      tau(  23) = (   0.1546506   0.5778562   1.1449747  )
        24        O      tau(  24) = (   0.5032681   0.5778562   0.7509217  )
        25        O      tau(  25) = (   0.2867319   0.3516527   0.3121693  )
        26        O      tau(  26) = (   0.3711868   0.3516527   1.5837270  )
        27        O      tau(  27) = (   0.9380313   1.7305269   0.3167643  )
        28        O      tau(  28) = (  -0.2801126   1.7305269   1.5791321  )
        29        O      tau(  29) = (   0.3987445   1.3453251   1.5763210  )
        30        O      tau(  30) = (   0.2591742   1.3453251   0.3195754  )
        31        O      tau(  31) = (   0.7581705   1.2701153   0.3177602  )
        32        O      tau(  32) = (  -0.1002518   1.2701153   1.5781362  )
        33        O      tau(  33) = (   0.4407616   0.8811099   0.3059823  )
        34        O      tau(  34) = (   0.2171571   0.8811099   1.5899141  )
        35        O      tau(  35) = (  -0.1446729   0.4803810   1.5953815  )
        36        O      tau(  36) = (   0.8025917   0.4803810   0.3005149  )
        37        O      tau(  37) = (  -0.0044324   0.8749287   0.7464452  )
        38        O      tau(  38) = (   0.6623511   0.8749287   1.1494512  )
        39        O      tau(  39) = (   0.4963835   1.7340188   0.7530168  )
        40        O      tau(  40) = (   0.1615353   1.7340188   1.1428796  )
        41        H      tau(  41) = (  -0.0030255   0.8591788   0.5649693  )
        42        H      tau(  42) = (   0.6609443   0.8591788   1.3309270  )
        43        H      tau(  43) = (   0.4921220   0.0241592   0.5724767  )
        44        H      tau(  44) = (   0.1657967   0.0241592   1.3234197  )

     DFT-D3 Dispersion Correction (3-body terms):
       Reference C6 values for interpolation:

         atom   Coordination number   C6
         H          0.912             6.05
         H          0.000            15.18
         O          0.000            31.01
         O          0.993            25.63
         O          1.989            20.74
         Mg         0.000          1366.75
         Mg         0.963           902.54
         Mg         1.950           351.12
         Al         0.000          1081.08
         Al         0.965           875.51
         Al         1.931           513.50
         Al         2.915           307.19
         Si         0.000           635.71
[...]
     The core correction contribution to forces
     atom    1 type  3   force =    -0.00000000   -0.00150582   -0.00000000
     atom    2 type  3   force =     0.00000000    0.00158457   -0.00000000
     atom    3 type  4   force =     0.00000000    0.00019331   -0.00000000
     atom    4 type  4   force =    -0.00000000    0.00029933   -0.00000000
     atom    5 type  4   force =     0.00000000   -0.00039785    0.00000000
     atom    6 type  4   force =     0.00000000   -0.00080936   -0.00000000
     atom    7 type  4   force =     0.00000000    0.00029662   -0.00000000
     atom    8 type  4   force =    -0.00000000    0.00040482    0.00000000
     atom    9 type  6   force =     0.00212727    0.01055863    0.00593261
     atom   10 type  6   force =    -0.00212730    0.01055865   -0.00593248
     atom   11 type  6   force =     0.00032660    0.00325745   -0.01353598
     atom   12 type  6   force =    -0.00032658    0.00325745    0.01353598
     atom   13 type  6   force =    -0.00131826   -0.01172974    0.01073428
     atom   14 type  6   force =     0.00131826   -0.01172973   -0.01073436
     atom   15 type  1   force =    -0.00054364   -0.00223882   -0.01024178
     atom   16 type  1   force =     0.00054364   -0.00223882    0.01024178
     atom   17 type  5   force =    -0.00016988    0.00021715    0.00646713
     atom   18 type  5   force =     0.00016988    0.00021715   -0.00646713
     atom   19 type  5   force =    -0.00011850    0.00007789   -0.00699554
     atom   20 type  5   force =     0.00011850    0.00007789    0.00699554
     atom   21 type  5   force =     0.00008088   -0.00021275    0.00684401
     atom   22 type  5   force =    -0.00008088   -0.00021275   -0.00684401
     atom   23 type  5   force =     0.00008924    0.00006201   -0.00321365
     atom   24 type  5   force =    -0.00008923    0.00006201    0.00321363
     atom   25 type  5   force =     0.00458864   -0.00170759   -0.00581352
     atom   26 type  5   force =    -0.00458865   -0.00170759    0.00581347
     atom   27 type  5   force =    -0.00333826    0.00079151   -0.00711669
     atom   28 type  5   force =     0.00333826    0.00079151    0.00711666
     atom   29 type  5   force =    -0.00153190    0.00215274    0.00729881
     atom   30 type  5   force =     0.00153190    0.00215273   -0.00729882
     atom   31 type  5   force =     0.00080528   -0.00198571   -0.00745741
     atom   32 type  5   force =    -0.00080528   -0.00198571    0.00745740
     atom   33 type  5   force =    -0.00231883   -0.00351587   -0.00646389
     atom   34 type  5   force =     0.00231882   -0.00351587    0.00646388
     atom   35 type  5   force =     0.00113816    0.00409028    0.00644446
     atom   36 type  5   force =    -0.00113815    0.00409029   -0.00644447
     atom   37 type  5   force =    -0.00006755    0.00060837    0.01134840
     atom   38 type  5   force =     0.00006758    0.00060837   -0.01134840
     atom   39 type  5   force =     0.00000448   -0.00147067    0.01108736
     atom   40 type  5   force =    -0.00000445   -0.00147067   -0.01108736
     atom   41 type  2   force =     0.00000000    0.00000000    0.00000000
     atom   42 type  2   force =     0.00000000    0.00000000    0.00000000
     atom   43 type  2   force =     0.00000000    0.00000000    0.00000000
     atom   44 type  2   force =     0.00000000    0.00000000    0.00000000
     The Hubbard contrib.    to forces
     atom    1 type  3   force =     0.00000000    0.00000000    0.00000000
     atom    2 type  3   force =     0.00000000    0.00000000    0.00000000
     atom    3 type  4   force =     0.00000000    0.00000000    0.00000000
     atom    4 type  4   force =     0.00000000    0.00000000    0.00000000
     atom    5 type  4   force =     0.00000000    0.00000000    0.00000000
     atom    6 type  4   force =     0.00000000    0.00000000    0.00000000
     atom    7 type  4   force =     0.00000000    0.00000000    0.00000000
     atom    8 type  4   force =     0.00000000    0.00000000    0.00000000
     atom    9 type  6   force =     0.00000000    0.00000000    0.00000000
     atom   10 type  6   force =     0.00000000    0.00000000    0.00000000
     atom   11 type  6   force =     0.00000000    0.00000000    0.00000000
     atom   12 type  6   force =     0.00000000    0.00000000    0.00000000
     atom   13 type  6   force =     0.00000000    0.00000000    0.00000000
     atom   14 type  6   force =     0.00000000    0.00000000    0.00000000
     atom   15 type  1   force =     0.00000000    0.00000000    0.00000000
     atom   16 type  1   force =     0.00000000    0.00000000    0.00000000
     atom   17 type  5   force =     0.00000000    0.00000000    0.00000000
     atom   18 type  5   force =     0.00000000    0.00000000    0.00000000
     atom   19 type  5   force =     0.00000000    0.00000000    0.00000000
     atom   20 type  5   force =     0.00000000    0.00000000    0.00000000
     atom   21 type  5   force =     0.00000000    0.00000000    0.00000000
     atom   22 type  5   force =     0.00000000    0.00000000    0.00000000
     atom   23 type  5   force =     0.00000000    0.00000000    0.00000000
     atom   24 type  5   force =     0.00000000    0.00000000    0.00000000
     atom   25 type  5   force =     0.00000000    0.00000000    0.00000000
     atom   26 type  5   force =     0.00000000    0.00000000    0.00000000
     atom   27 type  5   force =     0.00000000    0.00000000    0.00000000
     atom   28 type  5   force =     0.00000000    0.00000000    0.00000000
     atom   29 type  5   force =     0.00000000    0.00000000    0.00000000
     atom   30 type  5   force =     0.00000000    0.00000000    0.00000000
     atom   31 type  5   force =     0.00000000    0.00000000    0.00000000
     atom   32 type  5   force =     0.00000000    0.00000000    0.00000000
     atom   33 type  5   force =     0.00000000    0.00000000    0.00000000
     atom   34 type  5   force =     0.00000000    0.00000000    0.00000000
     atom   35 type  5   force =     0.00000000    0.00000000    0.00000000
     atom   36 type  5   force =     0.00000000    0.00000000    0.00000000
     atom   37 type  5   force =     0.00000000    0.00000000    0.00000000
     atom   38 type  5   force =     0.00000000    0.00000000    0.00000000
     atom   39 type  5   force =     0.00000000    0.00000000    0.00000000
     atom   40 type  5   force =     0.00000000    0.00000000    0.00000000
     atom   41 type  2   force =     0.00000000    0.00000000    0.00000000
     atom   42 type  2   force =     0.00000000    0.00000000    0.00000000
     atom   43 type  2   force =     0.00000000    0.00000000    0.00000000
     atom   44 type  2   force =     0.00000000    0.00000000    0.00000000
     The SCF correction term to forces
     atom    1 type  3   force =    -0.00000000   -0.00000958   -0.00000000
     atom    2 type  3   force =     0.00000000    0.00001165    0.00000000
     atom    3 type  4   force =    -0.00000000    0.00001313    0.00000000
     atom    4 type  4   force =     0.00000000    0.00000476    0.00000000
     atom    5 type  4   force =    -0.00000000   -0.00001609    0.00000000
     atom    6 type  4   force =     0.00000000    0.00000088   -0.00000000
     atom    7 type  4   force =     0.00000000    0.00000453   -0.00000000
     atom    8 type  4   force =     0.00000000   -0.00000449   -0.00000000
     atom    9 type  6   force =    -0.00000036    0.00000602   -0.00002474
     atom   10 type  6   force =     0.00000036    0.00000602    0.00002474
     atom   11 type  6   force =     0.00000107   -0.00000464    0.00002886
     atom   12 type  6   force =    -0.00000107   -0.00000464   -0.00002886
     atom   13 type  6   force =     0.00000154   -0.00000428   -0.00003026
     atom   14 type  6   force =    -0.00000154   -0.00000428    0.00003026
     atom   15 type  1   force =    -0.00000063    0.00000141    0.00002205
     atom   16 type  1   force =     0.00000063    0.00000141   -0.00002205
     atom   17 type  5   force =    -0.00000338    0.00000311    0.00001101
     atom   18 type  5   force =     0.00000338    0.00000311   -0.00001101
     atom   19 type  5   force =    -0.00000014   -0.00000183   -0.00000783
     atom   20 type  5   force =     0.00000014   -0.00000183    0.00000783
     atom   21 type  5   force =     0.00000165   -0.00000582    0.00001259
     atom   22 type  5   force =    -0.00000165   -0.00000582   -0.00001259
     atom   23 type  5   force =    -0.00000148    0.00000052    0.00001720
     atom   24 type  5   force =     0.00000148    0.00000052   -0.00001720
     atom   25 type  5   force =     0.00002659    0.00001190   -0.00004103
     atom   26 type  5   force =    -0.00002659    0.00001190    0.00004103
     atom   27 type  5   force =    -0.00000641   -0.00000232   -0.00004583
     atom   28 type  5   force =     0.00000641   -0.00000232    0.00004583
     atom   29 type  5   force =    -0.00000153    0.00000118    0.00004870
     atom   30 type  5   force =     0.00000153    0.00000118   -0.00004870
     atom   31 type  5   force =     0.00000134   -0.00000539   -0.00004889
     atom   32 type  5   force =    -0.00000134   -0.00000539    0.00004889
     atom   33 type  5   force =     0.00000021   -0.00002474   -0.00004420
     atom   34 type  5   force =    -0.00000021   -0.00002474    0.00004420
     atom   35 type  5   force =     0.00002239    0.00001869    0.00004080
     atom   36 type  5   force =    -0.00002239    0.00001869   -0.00004080
     atom   37 type  5   force =    -0.00000259   -0.00000090   -0.00000348
     atom   38 type  5   force =     0.00000259   -0.00000090    0.00000348
     atom   39 type  5   force =     0.00000081    0.00000404   -0.00000597
     atom   40 type  5   force =    -0.00000081    0.00000404    0.00000597
     atom   41 type  2   force =    -0.00000032   -0.00000046   -0.00000242
     atom   42 type  2   force =     0.00000032   -0.00000046    0.00000242
     atom   43 type  2   force =     0.00000010    0.00000077   -0.00000239
     atom   44 type  2   force =    -0.00000010    0.00000077    0.00000239

     DFT-D3 dispersion contribution to forces:
     atom    1 type  3   force =    -0.00000000    0.00102187   -0.00000000
     atom    2 type  3   force =    -0.00000000   -0.00084504    0.00000000
     atom    3 type  4   force =    -0.00000000    0.00032406   -0.00000000
     atom    4 type  4   force =     0.00000000    0.00071642   -0.00000000
     atom    5 type  4   force =     0.00000000   -0.00113288   -0.00000000
     atom    6 type  4   force =    -0.00000000   -0.00062394   -0.00000000
     atom    7 type  4   force =    -0.00000000    0.00113325   -0.00000000
     atom    8 type  4   force =     0.00000000   -0.00019362   -0.00000000
     atom    9 type  6   force =     0.00004371   -0.00007628   -0.00023287
     atom   10 type  6   force =    -0.00004371   -0.00007628    0.00023287
     atom   11 type  6   force =     0.00004299    0.00005307    0.00015277
     atom   12 type  6   force =    -0.00004299    0.00005307   -0.00015277
     atom   13 type  6   force =    -0.00002943    0.00015694   -0.00014036
     atom   14 type  6   force =     0.00002943    0.00015694    0.00014036
     atom   15 type  1   force =     0.00004708    0.00009510   -0.00096448
     atom   16 type  1   force =    -0.00004708    0.00009510    0.00096448
     atom   17 type  5   force =    -0.00000443    0.00004778    0.00048061
     atom   18 type  5   force =     0.00000443    0.00004779   -0.00048061
     atom   19 type  5   force =     0.00000187    0.00000922   -0.00040643
     atom   20 type  5   force =    -0.00000187    0.00000922    0.00040643
     atom   21 type  5   force =    -0.00001573   -0.00005048    0.00043543
     atom   22 type  5   force =     0.00001573   -0.00005048   -0.00043543
     atom   23 type  5   force =    -0.00002396   -0.00002369    0.00005625
     atom   24 type  5   force =     0.00002396   -0.00002369   -0.00005625
     atom   25 type  5   force =    -0.00019383    0.00101736    0.00030007
     atom   26 type  5   force =     0.00019383    0.00101736   -0.00030007
     atom   27 type  5   force =     0.00085538    0.00007682    0.00020197
     atom   28 type  5   force =    -0.00085538    0.00007682   -0.00020197
     atom   29 type  5   force =     0.00034722   -0.00052447    0.00000628
     atom   30 type  5   force =    -0.00034722   -0.00052446   -0.00000628
     atom   31 type  5   force =    -0.00019568    0.00031330   -0.00005318
     atom   32 type  5   force =     0.00019568    0.00031330    0.00005318
     atom   33 type  5   force =     0.00094120   -0.00043758    0.00042118
     atom   34 type  5   force =    -0.00094120   -0.00043758   -0.00042118
     atom   35 type  5   force =     0.00066540   -0.00054132   -0.00045599
     atom   36 type  5   force =    -0.00066540   -0.00054132    0.00045599
     atom   37 type  5   force =    -0.00001077   -0.00004163   -0.00047915
     atom   38 type  5   force =     0.00001077   -0.00004163    0.00047915
     atom   39 type  5   force =     0.00001900    0.00004722   -0.00050348
     atom   40 type  5   force =    -0.00001900    0.00004722    0.00050348
     atom   41 type  2   force =    -0.00000051    0.00008915   -0.00027280
     atom   42 type  2   force =     0.00000051    0.00008915    0.00027280
     atom   43 type  2   force =     0.00004529   -0.00041059   -0.00027952
     atom   44 type  2   force =    -0.00004529   -0.00041059    0.00027952

     Total force =     0.003841     Total SCF correction =     0.000193

     DFT-D3 dispersion Force =     0.004439

     Computing stress (Cartesian axis) and pressure

          total   stress  (Ry/bohr**3)                   (kbar)     P=       -0.14
  -0.00000067   0.00000000  -0.00000117           -0.10        0.00       -0.17
   0.00000000   0.00000003   0.00000000            0.00        0.00        0.00
  -0.00000117   0.00000000  -0.00000227           -0.17        0.00       -0.33

     kinetic stress (kbar)  18750.25      0.00     -3.90
                                0.00  18746.61      0.00
                               -3.90      0.00  18433.18

     local   stress (kbar) -36546.98      0.00    -36.09
                                0.00 -36307.28     -0.00
                              -36.09     -0.00  14086.77

     nonloc. stress (kbar)   4984.06      0.00     -0.43
                                0.00   4984.09      0.00
                               -0.43      0.00   4975.28

     hartree stress (kbar)  20089.87     -0.00     13.75
                               -0.00  19983.49     -0.00
                               13.75     -0.00  -4704.34

     exc-cor stress (kbar)  -2730.25     -0.00      0.02
                               -0.00  -2730.27      0.00
                                0.02      0.00  -2727.06

     corecor stress (kbar)  -1820.24      0.00      0.11
                                0.00  -1820.30     -0.00
                                0.11     -0.00  -1821.78

     ewald   stress (kbar)  -2711.83     -0.00     26.29
                               -0.00  -2841.22      0.00
                               26.29      0.00 -28231.33

     hubbard stress (kbar)      0.00      0.00      0.00
                                0.00      0.00      0.00
                                0.00      0.00      0.00

     DFT-D   stress (kbar)    -14.97     -0.00      0.09
                               -0.00    -15.12     -0.00
                                0.09     -0.00    -11.05

     XDM     stress (kbar)      0.00      0.00      0.00
                                0.00      0.00      0.00
                                0.00      0.00      0.00

     dft-nl  stress (kbar)      0.00      0.00      0.00
                                0.00      0.00      0.00
                                0.00      0.00      0.00

     TS-vdW  stress (kbar)      0.00      0.00      0.00
                                0.00      0.00      0.00
                                0.00      0.00      0.00

     MDB     stress (kbar)      0.00      0.00      0.00
                                0.00      0.00      0.00
                                0.00      0.00      0.00

     3D-RISM stress (kbar)      0.00      0.00      0.00
                                0.00      0.00      0.00
                                0.00      0.00      0.00

     Writing all to output data dir ./temp/phl-fe0-dftd3.save/ :
     XML data file, charge density, pseudopotentials, collected wavefunctions

     General routines

     Parallel routines

     PAW routines

   This run was terminated on:  18:48:59  27Dec2024

   JOB DONE.