     Program PWSCF v.7.3.1 starts on 28Dec2024 at  0:12:52

     Reading input from relax.in
Warning: card  &CELL ignored
Warning: card    CELL_DOFREE     = 'IBRAV' ignored
Warning: card  / ignored

     Current dimensions of program PWSCF are:
     Max number of different atomic species (ntypx) = 10
     Max number of k-points (npk) =  40000
     Max angular momentum in pseudopotentials (lmaxx) =  4
     file Al.pbe-n-kjpaw_psl.1.0.0.UPF: wavefunction(s)  3S 3P renormalized
     file Fe.pbe-spn-kjpaw_psl.1.0.0.UPF: wavefunction(s)  3P 3D renormalized
     file H.pbe-kjpaw_psl.1.0.0.UPF: wavefunction(s)  1S renormalized
     file K.pbe-spn-kjpaw_psl.1.0.0.UPF: wavefunction(s)  3S renormalized
     file Mg.pbe-spnl-kjpaw_psl.1.0.0.UPF: wavefunction(s)  2P renormalized
     file O.pbe-n-kjpaw_psl.1.0.0.UPF: wavefunction(s)  2S 2P renormalized
     file Si.pbe-n-kjpaw_psl.1.0.0.UPF: wavefunction(s)  3S 3P renormalized

     R & G space division:  proc/nbgrp/npool/nimage =       4
     Subspace diagonalization in iterative solution of the eigenvalue problem:
     one sub-group per band group will be used

     Using Slab Decomposition

     bravais-lattice index     =          -12
     lattice parameter (alat)  =       9.9883  a.u.
     unit-cell volume          =    3285.8057 (a.u.)^3
     number of atoms/cell      =           44
     number of atomic types    =            7
     number of electrons       =       262.00
     number of Kohn-Sham states=          157
     kinetic-energy cutoff     =      60.0000  Ry
     charge density cutoff     =     480.0000  Ry
     scf convergence threshold =      1.0E-06
     mixing beta               =       0.7000
     number of iterations used =            8  plain     mixing
     energy convergence thresh.=      1.0E-04
     force convergence thresh. =      1.0E-03
     Exchange-correlation= SLA  PW   PBX  PBC
                           (   1   4   3   4   0   0   0)
     nstep                     =           50

     celldm(1)=   9.988336  celldm(2)=   1.736567  celldm(3)=   1.928182
     celldm(4)=   0.000000  celldm(5)=  -0.174018  celldm(6)=   0.000000

     crystal axes: (cart. coord. in units of alat)
               a(1) = (   1.000000   0.000000   0.000000 )
               a(2) = (   0.000000   1.736567   0.000000 )
               a(3) = (  -0.335538   0.000000   1.898763 )

     reciprocal axes: (cart. coord. in units 2 pi/alat)
               b(1) = (  1.000000 -0.000000  0.176714 )
               b(2) = (  0.000000  0.575849 -0.000000 )
               b(3) = (  0.000000  0.000000  0.526659 )

     PseudoPot. # 1 for Al read from file:
     ./../../pseudos/Al.pbe-n-kjpaw_psl.1.0.0.UPF
     MD5 check sum: 502b6b27b9c6270cab5dd1084b96fa6d
     Pseudo is Projector augmented-wave + core cor, Zval =  3.0
     Generated using &quot;atomic&quot; code by A. Dal Corso  v.6.3
     Shape of augmentation charge: PSQ
     Using radial grid of 1135 points,  6 beta functions with:
                l(1) =   0
                l(2) =   0
                l(3) =   1
                l(4) =   1
                l(5) =   2
                l(6) =   2
     Q(r) pseudized with 0 coefficients

     PseudoPot. # 2 for Fe read from file:
     ./../../pseudos/Fe.pbe-spn-kjpaw_psl.1.0.0.UPF
     MD5 check sum: fc81f059e5c5069939230b1155715ae8
     Pseudo is Projector augmented-wave + core cor, Zval = 16.0
     Generated using &quot;atomic&quot; code by A. Dal Corso  v.6.3
     Shape of augmentation charge: PSQ
     Using radial grid of 1191 points,  6 beta functions with:
                l(1) =   0
                l(2) =   0
                l(3) =   1
                l(4) =   1
                l(5) =   2
                l(6) =   2
     Q(r) pseudized with 0 coefficients

     PseudoPot. # 3 for H  read from file:
     ./../../pseudos/H.pbe-kjpaw_psl.1.0.0.UPF
     MD5 check sum: d81a744832360e4a8af0b0b5b123bc2a
     Pseudo is Projector augmented-wave, Zval =  1.0
     Generated using &quot;atomic&quot; code by A. Dal Corso  v.6.3MaX
     Shape of augmentation charge: PSQ
     Using radial grid of  929 points,  2 beta functions with:
                l(1) =   0
                l(2) =   0
     Q(r) pseudized with 0 coefficients

     PseudoPot. # 4 for K  read from file:
     ./../../pseudos/K.pbe-spn-kjpaw_psl.1.0.0.UPF
     MD5 check sum: 34cc42130a09071ebe376fd42eb21491
     Pseudo is Projector augmented-wave + core cor, Zval =  9.0
     Generated using &quot;atomic&quot; code by A. Dal Corso  v.6.2.2
     Shape of augmentation charge: PSQ
     Using radial grid of 1165 points,  6 beta functions with:
                l(1) =   0
                l(2) =   0
                l(3) =   1
                l(4) =   1
                l(5) =   2
                l(6) =   2
     Q(r) pseudized with 0 coefficients

     PseudoPot. # 5 for Mg read from file:
     ./../../pseudos/Mg.pbe-spnl-kjpaw_psl.1.0.0.UPF
     MD5 check sum: fda14e0d92a6a9a5ebed782e5a4b3067
     Pseudo is Projector augmented-wave + core cor, Zval = 10.0
     Generated using &quot;atomic&quot; code by A. Dal Corso  v.6.3
     Shape of augmentation charge: PSQ
     Using radial grid of 1129 points,  4 beta functions with:
                l(1) =   0
                l(2) =   0
                l(3) =   1
                l(4) =   1
     Q(r) pseudized with 0 coefficients

     PseudoPot. # 6 for O  read from file:
     ./../../pseudos/O.pbe-n-kjpaw_psl.1.0.0.UPF
     MD5 check sum: e99d9cef9b487d1ca56f5b95ecd0fd7a
     Pseudo is Projector augmented-wave + core cor, Zval =  6.0
     Generated using &quot;atomic&quot; code by A. Dal Corso  v.6.3
     Shape of augmentation charge: PSQ
     Using radial grid of 1095 points,  4 beta functions with:
                l(1) =   0
                l(2) =   0
                l(3) =   1
                l(4) =   1
     Q(r) pseudized with 0 coefficients

     PseudoPot. # 7 for Si read from file:
     ./../../pseudos/Si.pbe-n-kjpaw_psl.1.0.0.UPF
     MD5 check sum: c39c59da582df4a0d9f10159256ea34e
     Pseudo is Projector augmented-wave + core cor, Zval =  4.0
     Generated using &quot;atomic&quot; code by A. Dal Corso  v.6.3
     Shape of augmentation charge: PSQ
     Using radial grid of 1141 points,  6 beta functions with:
                l(1) =   0
                l(2) =   0
                l(3) =   1
                l(4) =   1
                l(5) =   2
                l(6) =   2
     Q(r) pseudized with 0 coefficients

     atomic species   valence    mass     pseudopotential
     Al                3.00    26.98154     Al( 1.00)
     Fe               16.00    55.84500     Fe( 1.00)
     H                 1.00     1.00794     H ( 1.00)
     K                 9.00    39.09830     K ( 1.00)
     Mg               10.00    24.30500     Mg( 1.00)
     O                 6.00    15.99940     O ( 1.00)
     Si                4.00    28.08550     Si( 1.00)

     Starting magnetic structure
     atomic species   magnetization
     Al              0.000
     Fe              0.300
     H               0.000
     K               0.000
     Mg              0.000
     O               0.000
     Si              0.000

      2 Sym. Ops. (no inversion) found

                                    s                        frac. trans.

      isym =  1     identity

 cryst.   s( 1) = (     1          0          0      )
                  (     0          1          0      )
                  (     0          0          1      )

 cart.    s( 1) = (  1.0000000  0.0000000  0.0000000 )
                  (  0.0000000  1.0000000  0.0000000 )
                  (  0.0000000  0.0000000  1.0000000 )

      isym =  2     180 deg rotation - cart. axis [0,1,0]

 cryst.   s( 2) = (    -1          0          0      )
                  (     0          1          0      )
                  (     0          0         -1      )

 cart.    s( 2) = ( -1.0000000  0.0000000  0.0000000 )
                  (  0.0000000  1.0000000  0.0000000 )
                  (  0.0000000  0.0000000 -1.0000000 )

     point group C_2  (2)
     there are  2 classes
     the character table:

       E     C2
A      1.00  1.00
B      1.00 -1.00

     the symmetry operations in each class and the name of the first element:

     E        1
          identity
     C2       2
          180 deg rotation - cart. axis [0,1,0]

   Cartesian axes

     site n.     atom                  positions (alat units)
         1        K      tau(   1) = (   0.0000000   0.8568223   0.0000000  )
         2        K      tau(   2) = (   0.5000000   0.0097248   0.0000000  )
         3        Mg     tau(   3) = (  -0.1677688   0.0062516   0.9493815  )
         4        Mg     tau(   4) = (  -0.1677688   0.5789715   0.9493815  )
         5        Mg     tau(   5) = (  -0.1677688   1.1532543   0.9493815  )
         6        Mg     tau(   6) = (   0.3322312   1.4489917   0.9493815  )
         7        Mg     tau(   7) = (   0.3322312   0.3011208   0.9493815  )
         8        Fe     tau(   8) = (   0.3322312   0.8644632   0.9493815  )
         9        Si     tau(   9) = (   0.0078751   0.2868809   0.4234242  )
        10        Si     tau(  10) = (   0.6565873   0.2868809   1.4753389  )
        11        Si     tau(  11) = (   0.6740999   1.4484708   1.4645160  )
        12        Si     tau(  12) = (  -0.0096375   1.4484708   0.4342471  )
        13        Si     tau(  13) = (   0.4895001   1.1563801   0.4306395  )
        14        Si     tau(  14) = (   0.1749623   1.1563801   1.4681237  )
        15        Al     tau(  15) = (   0.1565906   0.5770613   1.4724908  )
        16        Al     tau(  16) = (   0.5078718   0.5770613   0.4262723  )
        17        O      tau(  17) = (  -0.0026826   0.2835814   0.7315934  )
        18        O      tau(  18) = (   0.6671450   0.2835814   1.1671696  )
        19        O      tau(  19) = (   0.6695214   1.4455186   1.1588151  )
        20        O      tau(  20) = (  -0.0050590   1.4455186   0.7399480  )
        21        O      tau(  21) = (   0.4958430   1.1596796   0.7382391  )
        22        O      tau(  22) = (   0.1686195   1.1596796   1.1605239  )
        23        O      tau(  23) = (   0.1614037   0.5826183   1.1453339  )
        24        O      tau(  24) = (   0.5030587   0.5826183   0.7534292  )
        25        O      tau(  25) = (   0.2868665   0.3546070   0.3159542  )
        26        O      tau(  26) = (   0.3775959   0.3546070   1.5828089  )
        27        O      tau(  27) = (   0.9409297   1.7313575   0.3189922  )
        28        O      tau(  28) = (  -0.2764673   1.7313575   1.5797709  )
        29        O      tau(  29) = (   0.4011696   1.3470552   1.5767328  )
        30        O      tau(  30) = (   0.2632928   1.3470552   0.3220302  )
        31        O      tau(  31) = (   0.7619283   1.2692570   0.3201314  )
        32        O      tau(  32) = (  -0.0974659   1.2692570   1.5786317  )
        33        O      tau(  33) = (   0.4412429   0.8820025   0.3075996  )
        34        O      tau(  34) = (   0.2232195   0.8820025   1.5911635  )
        35        O      tau(  35) = (  -0.1370160   0.4799872   1.5930622  )
[...]
     atom    3 type  5   force =     0.00000000    0.00000000    0.00000000
     atom    4 type  5   force =     0.00000000    0.00000000    0.00000000
     atom    5 type  5   force =     0.00000000    0.00000000    0.00000000
     atom    6 type  5   force =     0.00000000    0.00000000    0.00000000
     atom    7 type  5   force =     0.00000000    0.00000000    0.00000000
     atom    8 type  2   force =     0.00000000    0.00000000    0.00000000
     atom    9 type  7   force =     0.00000000    0.00000000    0.00000000
     atom   10 type  7   force =     0.00000000    0.00000000    0.00000000
     atom   11 type  7   force =     0.00000000    0.00000000    0.00000000
     atom   12 type  7   force =     0.00000000    0.00000000    0.00000000
     atom   13 type  7   force =     0.00000000    0.00000000    0.00000000
     atom   14 type  7   force =     0.00000000    0.00000000    0.00000000
     atom   15 type  1   force =     0.00000000    0.00000000    0.00000000
     atom   16 type  1   force =     0.00000000    0.00000000    0.00000000
     atom   17 type  6   force =     0.00000000    0.00000000    0.00000000
     atom   18 type  6   force =     0.00000000    0.00000000    0.00000000
     atom   19 type  6   force =     0.00000000    0.00000000    0.00000000
     atom   20 type  6   force =     0.00000000    0.00000000    0.00000000
     atom   21 type  6   force =     0.00000000    0.00000000    0.00000000
     atom   22 type  6   force =     0.00000000    0.00000000    0.00000000
     atom   23 type  6   force =     0.00000000    0.00000000    0.00000000
     atom   24 type  6   force =     0.00000000    0.00000000    0.00000000
     atom   25 type  6   force =     0.00000000    0.00000000    0.00000000
     atom   26 type  6   force =     0.00000000    0.00000000    0.00000000
     atom   27 type  6   force =     0.00000000    0.00000000    0.00000000
     atom   28 type  6   force =     0.00000000    0.00000000    0.00000000
     atom   29 type  6   force =     0.00000000    0.00000000    0.00000000
     atom   30 type  6   force =     0.00000000    0.00000000    0.00000000
     atom   31 type  6   force =     0.00000000    0.00000000    0.00000000
     atom   32 type  6   force =     0.00000000    0.00000000    0.00000000
     atom   33 type  6   force =     0.00000000    0.00000000    0.00000000
     atom   34 type  6   force =     0.00000000    0.00000000    0.00000000
     atom   35 type  6   force =     0.00000000    0.00000000    0.00000000
     atom   36 type  6   force =     0.00000000    0.00000000    0.00000000
     atom   37 type  6   force =     0.00000000    0.00000000    0.00000000
     atom   38 type  6   force =     0.00000000    0.00000000    0.00000000
     atom   39 type  6   force =     0.00000000    0.00000000    0.00000000
     atom   40 type  6   force =     0.00000000    0.00000000    0.00000000
     atom   41 type  3   force =     0.00000000    0.00000000    0.00000000
     atom   42 type  3   force =     0.00000000    0.00000000    0.00000000
     atom   43 type  3   force =     0.00000000    0.00000000    0.00000000
     atom   44 type  3   force =     0.00000000    0.00000000    0.00000000
     The SCF correction term to forces
     atom    1 type  4   force =    -0.00000000    0.00001022   -0.00000000
     atom    2 type  4   force =     0.00000000   -0.00002113    0.00000000
     atom    3 type  5   force =    -0.00000000    0.00001186    0.00000000
     atom    4 type  5   force =     0.00000000   -0.00000937   -0.00000000
     atom    5 type  5   force =     0.00000000   -0.00002164   -0.00000000
     atom    6 type  5   force =     0.00000000   -0.00004994    0.00000000
     atom    7 type  5   force =    -0.00000000    0.00005216    0.00000000
     atom    8 type  2   force =     0.00000000    0.00001265   -0.00000000
     atom    9 type  7   force =     0.00000043    0.00000282   -0.00000646
     atom   10 type  7   force =    -0.00000043    0.00000282    0.00000646
     atom   11 type  7   force =     0.00000107   -0.00000128    0.00000814
     atom   12 type  7   force =    -0.00000107   -0.00000128   -0.00000814
     atom   13 type  7   force =    -0.00000071   -0.00000341   -0.00001224
     atom   14 type  7   force =     0.00000071   -0.00000341    0.00001224
     atom   15 type  1   force =     0.00000306    0.00000383    0.00000466
     atom   16 type  1   force =    -0.00000306    0.00000383   -0.00000466
     atom   17 type  6   force =     0.00000518    0.00002452   -0.00000644
     atom   18 type  6   force =    -0.00000518    0.00002452    0.00000644
     atom   19 type  6   force =    -0.00000612   -0.00000418    0.00003304
     atom   20 type  6   force =     0.00000612   -0.00000418   -0.00003304
     atom   21 type  6   force =    -0.00001864   -0.00002258    0.00000270
     atom   22 type  6   force =     0.00001864   -0.00002258   -0.00000270
     atom   23 type  6   force =     0.00004059    0.00002572   -0.00002330
     atom   24 type  6   force =    -0.00004059    0.00002572    0.00002330
     atom   25 type  6   force =    -0.00000883    0.00003890   -0.00000390
     atom   26 type  6   force =     0.00000883    0.00003890    0.00000390
     atom   27 type  6   force =    -0.00002856    0.00000370    0.00006393
     atom   28 type  6   force =     0.00002856    0.00000370   -0.00006393
     atom   29 type  6   force =    -0.00002030   -0.00001282    0.00002150
     atom   30 type  6   force =     0.00002030   -0.00001282   -0.00002150
     atom   31 type  6   force =    -0.00000677   -0.00001649   -0.00001878
     atom   32 type  6   force =     0.00000677   -0.00001649    0.00001878
     atom   33 type  6   force =     0.00001460    0.00000783   -0.00002262
     atom   34 type  6   force =    -0.00001460    0.00000783    0.00002262
     atom   35 type  6   force =    -0.00000065    0.00000604    0.00001385
     atom   36 type  6   force =     0.00000065    0.00000604   -0.00001385
     atom   37 type  6   force =     0.00001360   -0.00000253   -0.00002812
     atom   38 type  6   force =    -0.00001360   -0.00000253    0.00002812
     atom   39 type  6   force =     0.00000225    0.00000306   -0.00003111
     atom   40 type  6   force =    -0.00000225    0.00000306    0.00003111
     atom   41 type  3   force =     0.00000140   -0.00000055   -0.00000306
     atom   42 type  3   force =    -0.00000140   -0.00000055    0.00000306
     atom   43 type  3   force =     0.00000085   -0.00000032   -0.00000365
     atom   44 type  3   force =    -0.00000085   -0.00000032    0.00000365

     DFT-D3 dispersion contribution to forces:
     atom    1 type  4   force =    -0.00000000    0.00046030    0.00000000
     atom    2 type  4   force =     0.00000000   -0.00031844    0.00000000
     atom    3 type  5   force =    -0.00000000    0.00025376   -0.00000000
     atom    4 type  5   force =     0.00000000    0.00088363   -0.00000000
     atom    5 type  5   force =     0.00000000   -0.00128078    0.00000000
     atom    6 type  5   force =     0.00000000    0.00108177   -0.00000000
     atom    7 type  5   force =     0.00000000   -0.00035002   -0.00000000
     atom    8 type  2   force =    -0.00000000   -0.00053988   -0.00000000
     atom    9 type  7   force =     0.00004799   -0.00017250   -0.00040423
     atom   10 type  7   force =    -0.00004799   -0.00017250    0.00040423
     atom   11 type  7   force =     0.00003155    0.00017918    0.00037047
     atom   12 type  7   force =    -0.00003155    0.00017918   -0.00037047
     atom   13 type  7   force =    -0.00009862    0.00009170   -0.00010963
     atom   14 type  7   force =     0.00009862    0.00009170    0.00010963
     atom   15 type  1   force =     0.00009252    0.00010568   -0.00119711
     atom   16 type  1   force =    -0.00009252    0.00010568    0.00119711
     atom   17 type  6   force =    -0.00001198    0.00001133    0.00042165
     atom   18 type  6   force =     0.00001198    0.00001133   -0.00042165
     atom   19 type  6   force =     0.00001006    0.00005224   -0.00033679
     atom   20 type  6   force =    -0.00001006    0.00005224    0.00033679
     atom   21 type  6   force =    -0.00005172   -0.00011175    0.00042315
     atom   22 type  6   force =     0.00005172   -0.00011175   -0.00042315
     atom   23 type  6   force =    -0.00000719    0.00006200    0.00008499
     atom   24 type  6   force =     0.00000719    0.00006200   -0.00008499
     atom   25 type  6   force =    -0.00016508    0.00096158    0.00011395
     atom   26 type  6   force =     0.00016508    0.00096158   -0.00011395
     atom   27 type  6   force =     0.00076318    0.00006623    0.00018710
     atom   28 type  6   force =    -0.00076318    0.00006623   -0.00018710
     atom   29 type  6   force =     0.00043481   -0.00063952   -0.00015378
     atom   30 type  6   force =    -0.00043481   -0.00063952    0.00015378
     atom   31 type  6   force =    -0.00029586    0.00050780    0.00019007
     atom   32 type  6   force =     0.00029586    0.00050780   -0.00019007
     atom   33 type  6   force =     0.00087834   -0.00042423    0.00036622
     atom   34 type  6   force =    -0.00087834   -0.00042423   -0.00036622
     atom   35 type  6   force =     0.00060404   -0.00049494   -0.00031680
     atom   36 type  6   force =    -0.00060404   -0.00049494    0.00031680
     atom   37 type  6   force =     0.00016062   -0.00002692   -0.00044477
     atom   38 type  6   force =    -0.00016062   -0.00002692    0.00044477
     atom   39 type  6   force =     0.00000099    0.00006659   -0.00051683
     atom   40 type  6   force =    -0.00000099    0.00006659    0.00051683
     atom   41 type  3   force =    -0.00009599    0.00011109   -0.00014767
     atom   42 type  3   force =     0.00009599    0.00011109    0.00014767
     atom   43 type  3   force =     0.00009118   -0.00044070   -0.00030571
     atom   44 type  3   force =    -0.00009118   -0.00044070    0.00030571

     Total force =     0.004057     Total SCF correction =     0.000202

     DFT-D3 dispersion Force =     0.004418

     Computing stress (Cartesian axis) and pressure

     negative rho (up, down):  0.000E+00 1.544E-04
          total   stress  (Ry/bohr**3)                   (kbar)     P=       23.20
   0.00017087   0.00000000  -0.00000387           25.14        0.00       -0.57
   0.00000000   0.00018269   0.00000000            0.00       26.87        0.00
  -0.00000387   0.00000000   0.00011962           -0.57        0.00       17.60

     kinetic stress (kbar)  20972.79      0.00     19.83
                                0.00  20884.67      0.00
                               19.83      0.00  20704.12

     local   stress (kbar) -38419.92     -0.00    158.10
                               -0.00 -38264.77      0.00
                              158.10      0.00  17131.35

     nonloc. stress (kbar)   3947.61      0.00      0.79
                                0.00   3950.06      0.00
                                0.79      0.00   3927.78

     hartree stress (kbar)  21976.52     -0.00    -59.08
                               -0.00  21906.15     -0.00
                              -59.08     -0.00  -5187.57

     exc-cor stress (kbar)  -2937.31     -0.00     -0.11
                               -0.00  -2937.74      0.00
                               -0.11      0.00  -2933.85

     corecor stress (kbar)  -1932.78      0.00     -0.10
                                0.00  -1932.20     -0.00
                               -0.10     -0.00  -1934.52

     ewald   stress (kbar)  -3566.07      0.00   -120.11
                                0.00  -3563.42     -0.00
                             -120.11     -0.00 -31677.65

     hubbard stress (kbar)      0.00      0.00      0.00
                                0.00      0.00      0.00
                                0.00      0.00      0.00

     DFT-D   stress (kbar)    -15.71      0.00      0.12
                                0.00    -15.87      0.00
                                0.12      0.00    -12.08

     XDM     stress (kbar)      0.00      0.00      0.00
                                0.00      0.00      0.00
                                0.00      0.00      0.00

     dft-nl  stress (kbar)      0.00      0.00      0.00
                                0.00      0.00      0.00
                                0.00      0.00      0.00

     TS-vdW  stress (kbar)      0.00      0.00      0.00
                                0.00      0.00      0.00
                                0.00      0.00      0.00

     MDB     stress (kbar)      0.00      0.00      0.00
                                0.00      0.00      0.00
                                0.00      0.00      0.00

     3D-RISM stress (kbar)      0.00      0.00      0.00
                                0.00      0.00      0.00
                                0.00      0.00      0.00

     Energy error            =      2.8E-05 Ry
     Gradient error          =      8.8E-04 Ry/Bohr

     bfgs converged in  14 scf cycles and  13 bfgs steps
     (criteria: energy <  1.0E-04 Ry, force <  1.0E-03 Ry/Bohr)

     End of BFGS Geometry Optimization

     Final energy             =   -2631.2435390373 Ry

     File ./temp/phl-fe1-dftd3.bfgs deleted, as requested
Begin final coordinates

ATOMIC_POSITIONS (crystal)
K                0.0000000000        0.4943811957        0.0000000000
K                0.5000000000        0.0034097014        0.0000000000
Mg               0.0000000000        0.0037453791        0.5000000000
Mg               0.0000000000        0.3325113648        0.5000000000
Mg               0.0000000000        0.6654105277        0.5000000000
Mg               0.5000000000        0.8352489560        0.5000000000
Mg               0.5000000000        0.1691145871        0.5000000000
Fe               0.5000000000        0.4920051638        0.5000000000
Si               0.0832030392        0.1650846834        0.2212002646
Si               0.9167969458        0.1650846834        0.7787997504
Si               0.9341898148        0.8346199288        0.7727767080
Si               0.0658101852        0.8346199288        0.2272232920
Si               0.5650963142        0.6676639546        0.2256317866
Si               0.4349036858        0.6676639546        0.7743682434
Al               0.4151449705        0.3309962122        0.7766715745
Al               0.5848549995        0.3309962122        0.2233284255
O                0.1276212972        0.1631963555        0.3837437791
O                0.8723786728        0.1631963555        0.6162561909
O                0.8743202881        0.8331642249        0.6115740014
O                0.1256797119        0.8331642249        0.3884259986
O                0.6282988441        0.6740691285        0.3873205889
O                0.3717011559        0.6740691285        0.6126793811
O                0.3591435461        0.3279669315        0.6039090403
O                0.6408564539        0.3279669315        0.3960909597
O                0.3440930940        0.2021990624        0.1637190064
O                0.6559069060        0.2021990624        0.8362809786
O                0.9933976791        0.9974976725        0.1657379590
O                0.0066023209        0.9974976725        0.8342620560
O                0.6810702708        0.7769523579        0.8330604640
O                0.3189297292        0.7769523579        0.1669395360
O                0.8178380582        0.7308678746        0.1655951746
O                0.1821619418        0.7308678746        0.8344048554
O                0.4937045261        0.5080838973        0.1628618983
O                0.5062954739        0.5080838973        0.8371381017
O                0.1420023385        0.2777358753        0.8423318763
O                0.8579976465        0.2777358753        0.1576681237
O                0.1196118962        0.5034146447        0.3914668805
O                0.8803880738        0.5034146447        0.6085330895
O                0.6334335773        0.9989868567        0.3969507567
O                0.3665664227        0.9989868567        0.6030492433
H                0.1110154393        0.4951358206        0.2962901358
H                0.8889845527        0.4951358206        0.7037098642
H                0.5963370455        0.0145010579        0.3017800606
H                0.4036629545        0.0145010579        0.6982199094
End final coordinates

     Writing all to output data dir ./temp/phl-fe1-dftd3.save/ :
     XML data file, charge density, pseudopotentials, collected wavefunctions

     General routines

     Parallel routines

     PAW routines

   This run was terminated on:  14:52:11  30Dec2024

   JOB DONE.