     Program PWSCF v.7.3.1 starts on  4Jan2025 at 18:38:59

     Reading input from relax.in

     Current dimensions of program PWSCF are:
     Max number of different atomic species (ntypx) = 10
     Max number of k-points (npk) =  40000
     Max angular momentum in pseudopotentials (lmaxx) =  4
     file Al.pbe-n-kjpaw_psl.1.0.0.UPF: wavefunction(s)  3S 3P renormalized
     file Fe.pbe-spn-kjpaw_psl.1.0.0.UPF: wavefunction(s)  3P 3D renormalized
     file Fe.pbe-spn-kjpaw_psl.1.0.0.UPF: wavefunction(s)  3P 3D renormalized
     file H.pbe-kjpaw_psl.1.0.0.UPF: wavefunction(s)  1S renormalized
     file K.pbe-spn-kjpaw_psl.1.0.0.UPF: wavefunction(s)  3S renormalized
     file Mg.pbe-spnl-kjpaw_psl.1.0.0.UPF: wavefunction(s)  2P renormalized
     file O.pbe-n-kjpaw_psl.1.0.0.UPF: wavefunction(s)  2S 2P renormalized
     file Si.pbe-n-kjpaw_psl.1.0.0.UPF: wavefunction(s)  3S 3P renormalized

     R & G space division:  proc/nbgrp/npool/nimage =       6
     Subspace diagonalization in iterative solution of the eigenvalue problem:
     one sub-group per band group will be used

     Using Slab Decomposition

     bravais-lattice index     =          -12
     lattice parameter (alat)  =      20.1681  a.u.
     unit-cell volume          =    6846.2028 (a.u.)^3
     number of atoms/cell      =           88
     number of atomic types    =            8
     number of electrons       =       524.00
     number of Kohn-Sham states=          314
     kinetic-energy cutoff     =      60.0000  Ry
     charge density cutoff     =     480.0000  Ry
     scf convergence threshold =      1.0E-06
     mixing beta               =       0.7000
     number of iterations used =            8  plain     mixing
     energy convergence thresh.=      1.0E-04
     force convergence thresh. =      1.0E-03
     Exchange-correlation= SLA  PW   PBX  PBC
                           (   1   4   3   4   0   0   0)
     nstep                     =           50

     celldm(1)=  20.168128  celldm(2)=   0.869309  celldm(3)=   0.974943
     celldm(4)=   0.000000  celldm(5)=  -0.174314  celldm(6)=   0.000000

     crystal axes: (cart. coord. in units of alat)
               a(1) = (   1.000000   0.000000   0.000000 )
               a(2) = (   0.000000   0.869309   0.000000 )
               a(3) = (  -0.169946   0.000000   0.960017 )

     reciprocal axes: (cart. coord. in units 2 pi/alat)
               b(1) = (  1.000000 -0.000000  0.177024 )
               b(2) = (  0.000000  1.150339 -0.000000 )
               b(3) = (  0.000000  0.000000  1.041649 )

     PseudoPot. # 1 for Al read from file:
     ./../../pseudos/Al.pbe-n-kjpaw_psl.1.0.0.UPF
     MD5 check sum: 502b6b27b9c6270cab5dd1084b96fa6d
     Pseudo is Projector augmented-wave + core cor, Zval =  3.0
     Generated using &quot;atomic&quot; code by A. Dal Corso  v.6.3
     Shape of augmentation charge: PSQ
     Using radial grid of 1135 points,  6 beta functions with:
                l(1) =   0
                l(2) =   0
                l(3) =   1
                l(4) =   1
                l(5) =   2
                l(6) =   2
     Q(r) pseudized with 0 coefficients

     PseudoPot. # 2 for Fe read from file:
     ./../../pseudos/Fe.pbe-spn-kjpaw_psl.1.0.0.UPF
     MD5 check sum: fc81f059e5c5069939230b1155715ae8
     Pseudo is Projector augmented-wave + core cor, Zval = 16.0
     Generated using &quot;atomic&quot; code by A. Dal Corso  v.6.3
     Shape of augmentation charge: PSQ
     Using radial grid of 1191 points,  6 beta functions with:
                l(1) =   0
                l(2) =   0
                l(3) =   1
                l(4) =   1
                l(5) =   2
                l(6) =   2
     Q(r) pseudized with 0 coefficients

     PseudoPot. # 3 for Fe read from file:
     ./../../pseudos/Fe.pbe-spn-kjpaw_psl.1.0.0.UPF
     MD5 check sum: fc81f059e5c5069939230b1155715ae8
     Pseudo is Projector augmented-wave + core cor, Zval = 16.0
     Generated using &quot;atomic&quot; code by A. Dal Corso  v.6.3
     Shape of augmentation charge: PSQ
     Using radial grid of 1191 points,  6 beta functions with:
                l(1) =   0
                l(2) =   0
                l(3) =   1
                l(4) =   1
                l(5) =   2
                l(6) =   2
     Q(r) pseudized with 0 coefficients

     PseudoPot. # 4 for H  read from file:
     ./../../pseudos/H.pbe-kjpaw_psl.1.0.0.UPF
     MD5 check sum: d81a744832360e4a8af0b0b5b123bc2a
     Pseudo is Projector augmented-wave, Zval =  1.0
     Generated using &quot;atomic&quot; code by A. Dal Corso  v.6.3MaX
     Shape of augmentation charge: PSQ
     Using radial grid of  929 points,  2 beta functions with:
                l(1) =   0
                l(2) =   0
     Q(r) pseudized with 0 coefficients

     PseudoPot. # 5 for K  read from file:
     ./../../pseudos/K.pbe-spn-kjpaw_psl.1.0.0.UPF
     MD5 check sum: 34cc42130a09071ebe376fd42eb21491
     Pseudo is Projector augmented-wave + core cor, Zval =  9.0
     Generated using &quot;atomic&quot; code by A. Dal Corso  v.6.2.2
     Shape of augmentation charge: PSQ
     Using radial grid of 1165 points,  6 beta functions with:
                l(1) =   0
                l(2) =   0
                l(3) =   1
                l(4) =   1
                l(5) =   2
                l(6) =   2
     Q(r) pseudized with 0 coefficients

     PseudoPot. # 6 for Mg read from file:
     ./../../pseudos/Mg.pbe-spnl-kjpaw_psl.1.0.0.UPF
     MD5 check sum: fda14e0d92a6a9a5ebed782e5a4b3067
     Pseudo is Projector augmented-wave + core cor, Zval = 10.0
     Generated using &quot;atomic&quot; code by A. Dal Corso  v.6.3
     Shape of augmentation charge: PSQ
     Using radial grid of 1129 points,  4 beta functions with:
                l(1) =   0
                l(2) =   0
                l(3) =   1
                l(4) =   1
     Q(r) pseudized with 0 coefficients

     PseudoPot. # 7 for O  read from file:
     ./../../pseudos/O.pbe-n-kjpaw_psl.1.0.0.UPF
     MD5 check sum: e99d9cef9b487d1ca56f5b95ecd0fd7a
     Pseudo is Projector augmented-wave + core cor, Zval =  6.0
     Generated using &quot;atomic&quot; code by A. Dal Corso  v.6.3
     Shape of augmentation charge: PSQ
     Using radial grid of 1095 points,  4 beta functions with:
                l(1) =   0
                l(2) =   0
                l(3) =   1
                l(4) =   1
     Q(r) pseudized with 0 coefficients

     PseudoPot. # 8 for Si read from file:
     ./../../pseudos/Si.pbe-n-kjpaw_psl.1.0.0.UPF
     MD5 check sum: c39c59da582df4a0d9f10159256ea34e
     Pseudo is Projector augmented-wave + core cor, Zval =  4.0
     Generated using &quot;atomic&quot; code by A. Dal Corso  v.6.3
     Shape of augmentation charge: PSQ
     Using radial grid of 1141 points,  6 beta functions with:
                l(1) =   0
                l(2) =   0
                l(3) =   1
                l(4) =   1
                l(5) =   2
                l(6) =   2
     Q(r) pseudized with 0 coefficients

     atomic species   valence    mass     pseudopotential
     Al                3.00    26.98154     Al( 1.00)
     Fe1              16.00    55.84500     Fe( 1.00)
     Fe2              16.00    55.84500     Fe( 1.00)
     H                 1.00     1.00794     H ( 1.00)
     K                 9.00    39.09830     K ( 1.00)
     Mg               10.00    24.30500     Mg( 1.00)
     O                 6.00    15.99940     O ( 1.00)
     Si                4.00    28.08550     Si( 1.00)

     Starting magnetic structure
     atomic species   magnetization
     Al              0.000
     Fe1             0.300
     Fe2            -0.300
     H               0.000
     K               0.000
     Mg              0.000
     O               0.000
     Si              0.000

      2 Sym. Ops. (no inversion) found ( 1 have fractional translation)

                                    s                        frac. trans.

      isym =  1     identity

 cryst.   s( 1) = (     1          0          0      )
                  (     0          1          0      )
                  (     0          0          1      )

 cart.    s( 1) = (  1.0000000  0.0000000  0.0000000 )
                  (  0.0000000  1.0000000  0.0000000 )
                  (  0.0000000  0.0000000  1.0000000 )

      isym =  2     180 deg rotation - cart. axis [0,1,0]

 cryst.   s( 2) = (    -1          0          0      )    f =(  0.5000000 )
                  (     0          1          0      )       (  0.0000000 )
                  (     0          0         -1      )       (  0.0000000 )

 cart.    s( 2) = ( -1.0000000  0.0000000  0.0000000 )    f =(  0.5000000 )
                  (  0.0000000  1.0000000  0.0000000 )       (  0.0000000 )
                  (  0.0000000  0.0000000 -1.0000000 )       (  0.0000000 )

     point group C_2  (2)
     there are  2 classes
     the character table:

       E     C2
A      1.00  1.00
B      1.00 -1.00

     the symmetry operations in each class and the name of the first element:

     E        1
          identity
     C2       2
          180 deg rotation - cart. axis [0,1,0]

   Cartesian axes

     site n.     atom                  positions (alat units)
         1        K      tau(   1) = (   0.0000000   0.4248539   0.0000000  )
         2        K      tau(   2) = (   0.5000000   0.4248539   0.0000000  )
         3        K      tau(   3) = (   0.2500000   0.0080773   0.0000000  )
         4        K      tau(   4) = (   0.7500000   0.0080773   0.0000000  )
         5        Mg     tau(   5) = (  -0.0849732   0.0034756   0.4800083  )
         6        Mg     tau(   6) = (   0.4150268   0.0034756   0.4800083  )
         7        Mg     tau(   7) = (  -0.0849732   0.2888718   0.4800083  )
         8        Mg     tau(   8) = (   0.4150268   0.2888718   0.4800083  )
         9        Mg     tau(   9) = (  -0.0849732   0.5788665   0.4800083  )
        10        Mg     tau(  10) = (   0.4150268   0.5788665   0.4800083  )
        11        Mg     tau(  11) = (   0.1650268   0.7258935   0.4800083  )
        12        Mg     tau(  12) = (   0.6650268   0.7258935   0.4800083  )
        13        Mg     tau(  13) = (   0.1650268   0.1472844   0.4800083  )
        14        Mg     tau(  14) = (   0.6650268   0.1472844   0.4800083  )
        15        Fe1    tau(  15) = (   0.1650268   0.4268724   0.4800083  )
        16        Fe2    tau(  16) = (   0.6650268   0.4268724   0.4800083  )
        17        Si     tau(  17) = (   0.0038011   0.1431967   0.2172113  )
        18        Si     tau(  18) = (   0.5038011   0.1431967   0.2172113  )
        19        Si     tau(  19) = (   0.3262526   0.1431967   0.7428053  )
        20        Si     tau(  20) = (   0.8262526   0.1431967   0.7428053  )
        21        Si     tau(  21) = (   0.3361473   0.7252565   0.7368591  )
        22        Si     tau(  22) = (   0.8361473   0.7252565   0.7368591  )
        23        Si     tau(  23) = (  -0.0060936   0.7252565   0.2231575  )
        24        Si     tau(  24) = (   0.4939064   0.7252565   0.2231575  )
        25        Si     tau(  25) = (   0.2439631   0.5804373   0.2216193  )
[...]
     atom   50 type  7   force =    -0.00002607   -0.00004506   -0.00002051
     atom   51 type  7   force =     0.00001401   -0.00003841    0.00004441
     atom   52 type  7   force =     0.00002607   -0.00004506    0.00002051
     atom   53 type  7   force =     0.00003381    0.00002622   -0.00002028
     atom   54 type  7   force =    -0.00001014    0.00000442    0.00000502
     atom   55 type  7   force =    -0.00003381    0.00002622    0.00002028
     atom   56 type  7   force =     0.00001014    0.00000442   -0.00000502
     atom   57 type  7   force =    -0.00002298    0.00002788    0.00001884
     atom   58 type  7   force =     0.00003834    0.00001869    0.00001450
     atom   59 type  7   force =     0.00002298    0.00002788   -0.00001884
     atom   60 type  7   force =    -0.00003834    0.00001869   -0.00001450
[...]
     atom   74 type  7   force =     0.00008087   -0.00005326   -0.00001904
     atom   75 type  7   force =     0.00005380    0.00000430   -0.00004481
     atom   76 type  7   force =    -0.00008087   -0.00005326    0.00001904
     atom   77 type  7   force =    -0.00000132   -0.00002183   -0.00000796
     atom   78 type  7   force =    -0.00001527    0.00006072   -0.00000709
     atom   79 type  7   force =     0.00000132   -0.00002183    0.00000796
     atom   80 type  7   force =     0.00001527    0.00006072    0.00000709
     atom   81 type  4   force =    -0.00000423   -0.00000123   -0.00001694
     atom   82 type  4   force =     0.00000455   -0.00000277    0.00001935
     atom   83 type  4   force =     0.00000423   -0.00000123    0.00001694
     atom   84 type  4   force =    -0.00000455   -0.00000277   -0.00001935
     atom   85 type  4   force =    -0.00000087   -0.00000356   -0.00000491
     atom   86 type  4   force =    -0.00000094    0.00000651    0.00000305
     atom   87 type  4   force =     0.00000087   -0.00000356    0.00000491
     atom   88 type  4   force =     0.00000094    0.00000651   -0.00000305

     DFT-D3 dispersion contribution to forces:
     atom    1 type  5   force =     0.00000000    0.00107830   -0.00000000
     atom    2 type  5   force =     0.00000000    0.00107830   -0.00000000
     atom    3 type  5   force =     0.00000000   -0.00098705    0.00000000
     atom    4 type  5   force =     0.00000000   -0.00098705    0.00000000
     atom    5 type  6   force =    -0.00000000    0.00030516    0.00000000
     atom    6 type  6   force =    -0.00000000    0.00030516   -0.00000000
     atom    7 type  6   force =    -0.00000000    0.00086000   -0.00000000
     atom    8 type  6   force =    -0.00000000    0.00086000   -0.00000000
     atom    9 type  6   force =    -0.00000000   -0.00122248   -0.00000000
     atom   10 type  6   force =    -0.00000000   -0.00122248   -0.00000000
     atom   11 type  6   force =     0.00000000    0.00111628   -0.00000000
     atom   12 type  6   force =    -0.00000000    0.00111628   -0.00000000
     atom   13 type  6   force =     0.00000000   -0.00033441   -0.00000000
     atom   14 type  6   force =    -0.00000000   -0.00033441   -0.00000000
     atom   15 type  2   force =    -0.00000000   -0.00061698   -0.00000000
     atom   16 type  3   force =    -0.00000000   -0.00061698   -0.00000000
     atom   17 type  8   force =     0.00004440   -0.00016099   -0.00032466
     atom   18 type  8   force =     0.00004440   -0.00016099   -0.00032466
     atom   19 type  8   force =    -0.00004440   -0.00016099    0.00032466
     atom   20 type  8   force =    -0.00004440   -0.00016099    0.00032466
     atom   21 type  8   force =     0.00002453    0.00015715    0.00026438
     atom   22 type  8   force =     0.00002453    0.00015715    0.00026438
     atom   23 type  8   force =    -0.00002453    0.00015715   -0.00026438
     atom   24 type  8   force =    -0.00002453    0.00015715   -0.00026438
     atom   25 type  8   force =    -0.00010036    0.00010123   -0.00001609
     atom   26 type  8   force =    -0.00010036    0.00010123   -0.00001609
     atom   27 type  8   force =     0.00010037    0.00010123    0.00001609
     atom   28 type  8   force =     0.00010037    0.00010123    0.00001609
     atom   29 type  1   force =     0.00012457    0.00016214   -0.00106910
     atom   30 type  1   force =     0.00012457    0.00016214   -0.00106910
     atom   31 type  1   force =    -0.00012457    0.00016214    0.00106910
     atom   32 type  1   force =    -0.00012457    0.00016214    0.00106910
     atom   33 type  7   force =    -0.00002054    0.00001262    0.00043825
     atom   34 type  7   force =    -0.00002054    0.00001262    0.00043825
     atom   35 type  7   force =     0.00002054    0.00001262   -0.00043825
     atom   36 type  7   force =     0.00002054    0.00001262   -0.00043825
     atom   37 type  7   force =     0.00001537    0.00004290   -0.00038850
     atom   38 type  7   force =     0.00001537    0.00004290   -0.00038850
     atom   39 type  7   force =    -0.00001537    0.00004290    0.00038849
     atom   40 type  7   force =    -0.00001537    0.00004290    0.00038849
     atom   41 type  7   force =    -0.00004009   -0.00008114    0.00046790
     atom   42 type  7   force =    -0.00004009   -0.00008114    0.00046790
     atom   43 type  7   force =     0.00004009   -0.00008114   -0.00046789
     atom   44 type  7   force =     0.00004009   -0.00008114   -0.00046789
     atom   45 type  7   force =    -0.00002090    0.00003402    0.00005439
     atom   46 type  7   force =    -0.00002090    0.00003402    0.00005439
     atom   47 type  7   force =     0.00002090    0.00003402   -0.00005439
     atom   48 type  7   force =     0.00002090    0.00003402   -0.00005439
     atom   49 type  7   force =    -0.00018569    0.00098968    0.00031718
     atom   50 type  7   force =    -0.00018569    0.00098968    0.00031718
     atom   51 type  7   force =     0.00018569    0.00098968   -0.00031718
     atom   52 type  7   force =     0.00018570    0.00098968   -0.00031718
     atom   53 type  7   force =     0.00083858    0.00007120    0.00019941
     atom   54 type  7   force =     0.00083858    0.00007120    0.00019941
     atom   55 type  7   force =    -0.00083858    0.00007120   -0.00019941
     atom   56 type  7   force =    -0.00083858    0.00007120   -0.00019941
     atom   57 type  7   force =     0.00032564   -0.00049032    0.00005328
     atom   58 type  7   force =     0.00032564   -0.00049032    0.00005328
     atom   59 type  7   force =    -0.00032564   -0.00049032   -0.00005328
     atom   60 type  7   force =    -0.00032564   -0.00049032   -0.00005328
[...]
     atom   74 type  7   force =     0.00013937   -0.00001459   -0.00044936
     atom   75 type  7   force =    -0.00013937   -0.00001458    0.00044936
     atom   76 type  7   force =    -0.00013937   -0.00001458    0.00044936
     atom   77 type  7   force =     0.00001278    0.00005650   -0.00051134
     atom   78 type  7   force =     0.00001278    0.00005650   -0.00051134
     atom   79 type  7   force =    -0.00001278    0.00005650    0.00051134
     atom   80 type  7   force =    -0.00001278    0.00005650    0.00051134
     atom   81 type  4   force =    -0.00002868    0.00005787   -0.00012076
     atom   82 type  4   force =    -0.00002868    0.00005787   -0.00012076
     atom   83 type  4   force =     0.00002868    0.00005787    0.00012076
     atom   84 type  4   force =     0.00002868    0.00005787    0.00012076
     atom   85 type  4   force =     0.00001927   -0.00037525   -0.00033411
     atom   86 type  4   force =     0.00001927   -0.00037525   -0.00033411
     atom   87 type  4   force =    -0.00001927   -0.00037525    0.00033411
     atom   88 type  4   force =    -0.00001927   -0.00037525    0.00033411

     Total force =     0.003764     Total SCF correction =     0.000811

     DFT-D3 dispersion Force =     0.006439
     SCF correction compared to forces is large: reduce conv_thr to get better values

     Computing stress (Cartesian axis) and pressure

     negative rho (up, down):  4.807E-04 4.811E-04
          total   stress  (Ry/bohr**3)                   (kbar)     P=       -0.40
  -0.00000269   0.00000000   0.00000019           -0.40        0.00        0.03
   0.00000000  -0.00000455   0.00000000            0.00       -0.67        0.00
   0.00000019   0.00000000  -0.00000095            0.03        0.00       -0.14

     kinetic stress (kbar)  20098.16      0.00     18.96
                                0.00  20015.47      0.00
                               18.96      0.00  19843.55

     local   stress (kbar) -40445.43      0.00    147.93
                                0.00 -40273.25      0.00
                              147.93      0.00  19330.78

     nonloc. stress (kbar)   3792.54      0.00      0.47
                                0.00   3794.38      0.00
                                0.47      0.00   3771.04

     hartree stress (kbar)  22797.33     -0.00    -55.87
                               -0.00  22719.40     -0.00
                              -55.87     -0.00  -6429.32

     exc-cor stress (kbar)  -2815.34      0.00     -0.09
                                0.00  -2815.73     -0.00
                               -0.09     -0.00  -2812.11

     corecor stress (kbar)  -1854.53     -0.00     -0.06
                               -0.00  -1854.03      0.00
                               -0.06      0.00  -1856.22

     ewald   stress (kbar)  -1558.60     -0.00   -111.47
                               -0.00  -1572.18     -0.00
                             -111.47     -0.00 -31836.96

     hubbard stress (kbar)      0.00      0.00      0.00
                                0.00      0.00      0.00
                                0.00      0.00      0.00

     DFT-D   stress (kbar)    -14.52     -0.00      0.16
                               -0.00    -14.74      0.00
                                0.16      0.00    -10.91

     XDM     stress (kbar)      0.00      0.00      0.00
                                0.00      0.00      0.00
                                0.00      0.00      0.00

     dft-nl  stress (kbar)      0.00      0.00      0.00
                                0.00      0.00      0.00
                                0.00      0.00      0.00

     TS-vdW  stress (kbar)      0.00      0.00      0.00
                                0.00      0.00      0.00
                                0.00      0.00      0.00

     MDB     stress (kbar)      0.00      0.00      0.00
                                0.00      0.00      0.00
                                0.00      0.00      0.00

     3D-RISM stress (kbar)      0.00      0.00      0.00
                                0.00      0.00      0.00
                                0.00      0.00      0.00

     BFGS Geometry Optimization
     Energy error            =      0.0E+00 Ry
     Gradient error          =      7.2E-04 Ry/Bohr

     bfgs converged in   1 scf cycles and   0 bfgs steps
     (criteria: energy <  1.0E-04 Ry, force <  1.0E-03 Ry/Bohr)

     End of BFGS Geometry Optimization

     Final energy             =   -5262.5151504208 Ry
Begin final coordinates

ATOMIC_POSITIONS (crystal)
K                0.0000000000        0.4887260200        0.0000000000
K                0.5000000000        0.4887260200        0.0000000000
K                0.2499999850        0.0092915760        0.0000000000
K                0.7500000000        0.0092915760        0.0000000000
Mg               0.0000000000        0.0039980750        0.4999999700
Mg               0.5000000000        0.0039980750        0.4999999700
Mg               0.0000000000        0.3323004540        0.4999999700
Mg               0.5000000000        0.3323004540        0.4999999700
Mg               0.0000000000        0.6658926610        0.4999999700
Mg               0.5000000000        0.6658926610        0.4999999700
Mg               0.2500000300        0.8350235820        0.4999999700
Mg               0.7500000000        0.8350235820        0.4999999700
Mg               0.2500000300        0.1694269480        0.4999999700
Mg               0.7500000000        0.1694269480        0.4999999700
Fe1              0.2500000300        0.4910479190        0.4999999700
Fe2              0.7500000000        0.4910479190        0.4999999700
Si               0.0422528050        0.1647246780        0.2262578760
Si               0.5422527790        0.1647246780        0.2262578760
Si               0.4577472510        0.1647246780        0.7737420800
Si               0.9577472210        0.1647246780        0.7737420800
Si               0.4665893320        0.8342908020        0.7675482630
Si               0.9665893320        0.8342908020        0.7675482630
Si               0.0334107240        0.8342908020        0.2324516620
Si               0.5334107280        0.8342908020        0.2324516620
Si               0.2831951080        0.6676995750        0.2308494300
Si               0.7831951380        0.6676995750        0.2308494300
Si               0.2168049510        0.6676995750        0.7691504960
Si               0.7168049810        0.6676995750        0.7691504960
Al               0.2067909690        0.3313409090        0.7714830040
Al               0.7067909840        0.3313409090        0.7714830040
Al               0.2932091060        0.3313409090        0.2285169510
Al               0.7932090760        0.3313409090        0.2285169510
O                0.0640468000        0.1629950850        0.3858095110
O                0.5640468000        0.1629950850        0.3858095110
O                0.4359532300        0.1629950850        0.6141904000
O                0.9359532590        0.1629950850        0.6141904000
O                0.4369282420        0.8334676030        0.6092910170
O                0.9369282720        0.8334676030        0.6092910170
O                0.0630718320        0.8334676030        0.3907088940
O                0.5630718470        0.8334676030        0.3907088940
O                0.3142474890        0.6738932730        0.3896054920
O                0.8142474890        0.6738932730        0.3896054920
O                0.1857525710        0.6738932730        0.6103943590
O                0.6857525710        0.6738932730        0.6103943590
O                0.1793238820        0.3279392720        0.6016949420
O                0.6793239120        0.3279392720        0.6016949420
O                0.3206761780        0.3279392720        0.3983049390
O                0.8206762080        0.3279392720        0.3983049390
O                0.1700665950        0.2077642230        0.1691810490
O                0.6700665950        0.2077642230        0.1691810490
O                0.3299334650        0.2077642230        0.8308188920
O                0.8299334650        0.2077642230        0.8308188920
O                0.0031175020        0.9969420430        0.1720545740
O                0.5031175020        0.9969420430        0.1720545740
O                0.4968825280        0.9969420430        0.8279453520
O                0.9968825580        0.9969420430        0.8279453520
O                0.3430352510        0.7704817650        0.8264473680
O                0.8430352210        0.7704817650        0.8264473680
O                0.1569648090        0.7704817650        0.1735525580
O                0.6569647790        0.7704817650        0.1735525580
[...]
O                0.5602566000        0.5035343770        0.3949086670
O                0.4397434590        0.5035343770        0.6050912140
O                0.9397434590        0.5035343770        0.6050912140
O                0.3171936570        0.9993365410        0.3998523060
O                0.8171936270        0.9993365410        0.3998523060
O                0.1828064020        0.9993365410        0.6001475450
O                0.6828063730        0.9993365410        0.6001475450
H                0.0539880660        0.4967257380        0.3013022240
H                0.5539880390        0.4967257380        0.3013022240
H                0.4460119900        0.4967257380        0.6986976270
H                0.9460120200        0.4967257380        0.6986976270
H                0.2997638580        0.0136193420        0.3064119520
H                0.7997638580        0.0136193420        0.3064119520
H                0.2002362160        0.0136193420        0.6935879590
H                0.7002362010        0.0136193420        0.6935879590
End final coordinates

     Writing all to output data dir ./temp/phl-fe1-fe4x2.save/ :
     XML data file, charge density, pseudopotentials, collected wavefunctions

     General routines

     Parallel routines

     PAW routines

   This run was terminated on:  14:40:47   5Jan2025

   JOB DONE.