     Program PWSCF v.7.3.1 starts on 22Jan2025 at 12:22: 6

     Reading input from relax.in

     Current dimensions of program PWSCF are:
     Max number of different atomic species (ntypx) = 10
     Max number of k-points (npk) =  40000
     Max angular momentum in pseudopotentials (lmaxx) =  4
     file Al.pbe-n-kjpaw_psl.1.0.0.UPF: wavefunction(s)  3S 3P renormalized
     file F.pbe-n-kjpaw_psl.1.0.0.UPF: wavefunction(s)  2S 2P renormalized
     file K.pbe-spn-kjpaw_psl.1.0.0.UPF: wavefunction(s)  3S renormalized
     file Mg.pbe-spnl-kjpaw_psl.1.0.0.UPF: wavefunction(s)  2P renormalized
     file O.pbe-n-kjpaw_psl.1.0.0.UPF: wavefunction(s)  2S 2P renormalized
     file Si.pbe-n-kjpaw_psl.1.0.0.UPF: wavefunction(s)  3S 3P renormalized

     R & G space division:  proc/nbgrp/npool/nimage =       6
     Subspace diagonalization in iterative solution of the eigenvalue problem:
     a serial algorithm will be used

     Using Slab Decomposition

     bravais-lattice index     =          -12
     lattice parameter (alat)  =      10.0136  a.u.
     unit-cell volume          =    3303.4414 (a.u.)^3
     number of atoms/cell      =           40
     number of atomic types    =            6
     number of electrons       =       256.00
     number of Kohn-Sham states=          128
     kinetic-energy cutoff     =      60.0000  Ry
     charge density cutoff     =     480.0000  Ry
     scf convergence threshold =      1.0E-06
     mixing beta               =       0.7000
     number of iterations used =            8  plain     mixing
     energy convergence thresh.=      1.0E-04
     force convergence thresh. =      1.0E-03
     Exchange-correlation= SLA  PW   PBX  PBC
                           (   1   4   3   4   0   0   0)
     nstep                     =           50

     celldm(1)=  10.013640  celldm(2)=   1.735306  celldm(3)=   1.926511
     celldm(4)=   0.000000  celldm(5)=  -0.177565  celldm(6)=   0.000000

     crystal axes: (cart. coord. in units of alat)
               a(1) = (   1.000000   0.000000   0.000000 )
               a(2) = (   0.000000   1.735306   0.000000 )
               a(3) = (  -0.342081   0.000000   1.895896 )

     reciprocal axes: (cart. coord. in units 2 pi/alat)
               b(1) = (  1.000000 -0.000000  0.180432 )
               b(2) = (  0.000000  0.576267 -0.000000 )
               b(3) = (  0.000000  0.000000  0.527455 )

     PseudoPot. # 1 for Al read from file:
     ./../../pseudos/Al.pbe-n-kjpaw_psl.1.0.0.UPF
     MD5 check sum: 502b6b27b9c6270cab5dd1084b96fa6d
     Pseudo is Projector augmented-wave + core cor, Zval =  3.0
     Generated using &quot;atomic&quot; code by A. Dal Corso  v.6.3
     Shape of augmentation charge: PSQ
     Using radial grid of 1135 points,  6 beta functions with:
                l(1) =   0
                l(2) =   0
                l(3) =   1
                l(4) =   1
                l(5) =   2
                l(6) =   2
     Q(r) pseudized with 0 coefficients

     PseudoPot. # 2 for F  read from file:
     ./../../pseudos/F.pbe-n-kjpaw_psl.1.0.0.UPF
     MD5 check sum: 66d718ea72839a4268ab2a9540e8cdd4
     Pseudo is Projector augmented-wave + core cor, Zval =  7.0
     Generated using &quot;atomic&quot; code by A. Dal Corso  v.6.3
     Shape of augmentation charge: PSQ
     Using radial grid of 1105 points,  4 beta functions with:
                l(1) =   0
                l(2) =   0
                l(3) =   1
                l(4) =   1
     Q(r) pseudized with 0 coefficients

     PseudoPot. # 3 for K  read from file:
     ./../../pseudos/K.pbe-spn-kjpaw_psl.1.0.0.UPF
     MD5 check sum: 34cc42130a09071ebe376fd42eb21491
     Pseudo is Projector augmented-wave + core cor, Zval =  9.0
     Generated using &quot;atomic&quot; code by A. Dal Corso  v.6.2.2
     Shape of augmentation charge: PSQ
     Using radial grid of 1165 points,  6 beta functions with:
                l(1) =   0
                l(2) =   0
                l(3) =   1
                l(4) =   1
                l(5) =   2
                l(6) =   2
     Q(r) pseudized with 0 coefficients

     PseudoPot. # 4 for Mg read from file:
     ./../../pseudos/Mg.pbe-spnl-kjpaw_psl.1.0.0.UPF
     MD5 check sum: fda14e0d92a6a9a5ebed782e5a4b3067
     Pseudo is Projector augmented-wave + core cor, Zval = 10.0
     Generated using &quot;atomic&quot; code by A. Dal Corso  v.6.3
     Shape of augmentation charge: PSQ
     Using radial grid of 1129 points,  4 beta functions with:
                l(1) =   0
                l(2) =   0
                l(3) =   1
                l(4) =   1
     Q(r) pseudized with 0 coefficients

     PseudoPot. # 5 for O  read from file:
     ./../../pseudos/O.pbe-n-kjpaw_psl.1.0.0.UPF
     MD5 check sum: e99d9cef9b487d1ca56f5b95ecd0fd7a
     Pseudo is Projector augmented-wave + core cor, Zval =  6.0
     Generated using &quot;atomic&quot; code by A. Dal Corso  v.6.3
     Shape of augmentation charge: PSQ
     Using radial grid of 1095 points,  4 beta functions with:
                l(1) =   0
                l(2) =   0
                l(3) =   1
                l(4) =   1
     Q(r) pseudized with 0 coefficients

     PseudoPot. # 6 for Si read from file:
     ./../../pseudos/Si.pbe-n-kjpaw_psl.1.0.0.UPF
     MD5 check sum: c39c59da582df4a0d9f10159256ea34e
     Pseudo is Projector augmented-wave + core cor, Zval =  4.0
     Generated using &quot;atomic&quot; code by A. Dal Corso  v.6.3
     Shape of augmentation charge: PSQ
     Using radial grid of 1141 points,  6 beta functions with:
                l(1) =   0
                l(2) =   0
                l(3) =   1
                l(4) =   1
                l(5) =   2
                l(6) =   2
     Q(r) pseudized with 0 coefficients

     atomic species   valence    mass     pseudopotential
     Al                3.00    26.98154     Al( 1.00)
     F                 7.00    18.99840     F ( 1.00)
     K                 9.00    39.09830     K ( 1.00)
     Mg               10.00    24.30500     Mg( 1.00)
     O                 6.00    15.99940     O ( 1.00)
     Si                4.00    28.08550     Si( 1.00)

      2 Sym. Ops. (no inversion) found

                                    s                        frac. trans.

      isym =  1     identity

 cryst.   s( 1) = (     1          0          0      )
                  (     0          1          0      )
                  (     0          0          1      )

 cart.    s( 1) = (  1.0000000  0.0000000 -0.0000000 )
                  (  0.0000000  1.0000000  0.0000000 )
                  (  0.0000000  0.0000000  1.0000000 )

      isym =  2     180 deg rotation - cart. axis [0,1,0]

 cryst.   s( 2) = (    -1          0          0      )
                  (     0          1          0      )
                  (     0          0         -1      )

 cart.    s( 2) = ( -1.0000000  0.0000000  0.0000000 )
                  (  0.0000000  1.0000000  0.0000000 )
                  (  0.0000000  0.0000000 -1.0000000 )

     point group C_2  (2)
     there are  2 classes
     the character table:

       E     C2
A      1.00  1.00
B      1.00 -1.00

     the symmetry operations in each class and the name of the first element:

     E        1
          identity
     C2       2
          180 deg rotation - cart. axis [0,1,0]

   Cartesian axes

     site n.     atom                  positions (alat units)
         1        K      tau(   1) = (   0.0000000   0.8559224   0.0000000  )
         2        K      tau(   2) = (   0.5000000   0.0093568   0.0000000  )
         3        Mg     tau(   3) = (  -0.1710407   0.0067712   0.9479482  )
         4        Mg     tau(   4) = (  -0.1710407   0.5780843   0.9479482  )
         5        Mg     tau(   5) = (  -0.1710407   1.1543881   0.9479482  )
         6        Mg     tau(   6) = (   0.3289593   0.8562226   0.9479482  )
         7        Mg     tau(   7) = (   0.3289593   1.4480089   0.9479482  )
         8        Mg     tau(   8) = (   0.3289593   0.2986375   0.9479482  )
         9        Si     tau(   9) = (   0.0066674   0.2865251   0.4219393  )
        10        Si     tau(  10) = (   0.6512513   0.2865251   1.4739570  )
        11        Si     tau(  11) = (   0.6701371   1.4476688   1.4628623  )
        12        Si     tau(  12) = (  -0.0122184   1.4476688   0.4330341  )
        13        Si     tau(  13) = (   0.4872056   1.1568454   0.4292651  )
        14        Si     tau(  14) = (   0.1707131   1.1568454   1.4666313  )
        15        Al     tau(  15) = (   0.1506005   0.5746762   1.4713786  )
        16        Al     tau(  16) = (   0.5073182   0.5746762   0.4245177  )
        17        O      tau(  17) = (  -0.0043508   0.2833738   0.7297400  )
        18        O      tau(  18) = (   0.6622695   0.2833738   1.1661564  )
        19        O      tau(  19) = (   0.6658139   1.4451231   1.1576912  )
        20        O      tau(  20) = (  -0.0078952   1.4451231   0.7382052  )
        21        O      tau(  21) = (   0.4926234   1.1618863   0.7357690  )
        22        O      tau(  22) = (   0.1652953   1.1618863   1.1601274  )
        23        O      tau(  23) = (   0.1548298   0.5779784   1.1454267  )
        24        O      tau(  24) = (   0.5030889   0.5779784   0.7504697  )
        25        O      tau(  25) = (   0.2847398   0.3548857   0.3143567  )
        26        O      tau(  26) = (   0.3731789   0.3548857   1.5815398  )
        27        O      tau(  27) = (   0.9404978   1.7303189   0.3181314  )
        28        O      tau(  28) = (  -0.2825791   1.7303189   1.5777650  )
        29        O      tau(  29) = (   0.3988927   1.3439356   1.5754330  )
        30        O      tau(  30) = (   0.2590260   1.3439356   0.3204634  )
        31        O      tau(  31) = (   0.7582660   1.2710892   0.3185125  )
        32        O      tau(  32) = (  -0.1003473   1.2710892   1.5773839  )
        33        O      tau(  33) = (   0.4432368   0.8811364   0.3085875  )
        34        O      tau(  34) = (   0.2146819   0.8811364   1.5873090  )
        35        O      tau(  35) = (  -0.1423236   0.4782556   1.5925436  )
        36        O      tau(  36) = (   0.8002423   0.4782556   0.3033529  )
        37        F      tau(  37) = (  -0.0041068   0.8750247   0.7469263  )
        38        F      tau(  38) = (   0.6620255   0.8750247   1.1489701  )
        39        F      tau(  39) = (   0.4966158   1.7335917   0.7534577  )
        40        F      tau(  40) = (   0.1613029   1.7335917   1.1424388  )

     DFT-D3 Dispersion Correction (3-body terms):
       Reference C6 values for interpolation:

         atom   Coordination number   C6
         O          0.000            31.01
         O          0.993            25.63
         O          1.989            20.74
         F          0.000            19.38
         F          0.998            14.27
         Mg         0.000          1366.75
         Mg         0.963           902.54
         Mg         1.950           351.12
         Al         0.000          1081.08
         Al         0.965           875.51
         Al         1.931           513.50
         Al         2.915           307.19
         Si         0.000           635.71
[...]
     atom   30 type  5   force =    -0.47071115   -0.32160596   12.24488816
     atom   31 type  5   force =    -0.36945558    1.21317701   12.26706487
     atom   32 type  5   force =     0.36945558    1.21317701  -12.26706487
     atom   33 type  5   force =     0.64690911    2.07163303   11.13448836
     atom   34 type  5   force =    -0.64691924    2.07163282  -11.13449908
     atom   35 type  5   force =    -1.16561462   -2.13963342  -10.60658961
     atom   36 type  5   force =     1.16561285   -2.13963398   10.60656792
     atom   37 type  2   force =    -0.24325488    0.92723486   18.16902947
     atom   38 type  2   force =     0.24324245    0.92723494  -18.16902949
     atom   39 type  2   force =     0.06232129   -0.75362893   17.40786016
     atom   40 type  2   force =    -0.06231281   -0.75362878  -17.40791100
     The core correction contribution to forces
     atom    1 type  3   force =     0.00000000   -0.00165721    0.00000000
     atom    2 type  3   force =    -0.00000000    0.00180997    0.00000000
     atom    3 type  4   force =    -0.00000000    0.00027460    0.00000000
     atom    4 type  4   force =     0.00000000   -0.00028216    0.00000000
     atom    5 type  4   force =     0.00000000    0.00006083    0.00000000
     atom    6 type  4   force =    -0.00000000   -0.00087570    0.00000000
     atom    7 type  4   force =     0.00000000   -0.00022528    0.00000000
     atom    8 type  4   force =    -0.00000000    0.00101577    0.00000000
     atom    9 type  6   force =     0.00276177    0.01168512   -0.00064987
     atom   10 type  6   force =    -0.00276177    0.01168510    0.00064980
     atom   11 type  6   force =     0.00064989    0.00418291   -0.00833799
     atom   12 type  6   force =    -0.00064987    0.00418291    0.00833795
     atom   13 type  6   force =    -0.00167827   -0.01287772    0.00507206
     atom   14 type  6   force =     0.00167828   -0.01287771   -0.00507210
     atom   15 type  1   force =    -0.00072080   -0.00278672   -0.00574425
     atom   16 type  1   force =     0.00072081   -0.00278673    0.00574419
     atom   17 type  5   force =    -0.00011469    0.00022768    0.00583848
     atom   18 type  5   force =     0.00011467    0.00022767   -0.00583847
     atom   19 type  5   force =    -0.00007564    0.00007426   -0.00646463
     atom   20 type  5   force =     0.00007564    0.00007426    0.00646463
     atom   21 type  5   force =     0.00007838   -0.00018777    0.00626699
     atom   22 type  5   force =    -0.00007839   -0.00018777   -0.00626699
     atom   23 type  5   force =     0.00009877    0.00007304   -0.00266826
     atom   24 type  5   force =    -0.00009877    0.00007304    0.00266828
     atom   25 type  5   force =     0.00465856   -0.00169170   -0.00598173
     atom   26 type  5   force =    -0.00465856   -0.00169170    0.00598175
     atom   27 type  5   force =    -0.00338220    0.00090662   -0.00718947
     atom   28 type  5   force =     0.00338220    0.00090662    0.00718945
     atom   29 type  5   force =    -0.00165908    0.00239859    0.00733464
     atom   30 type  5   force =     0.00165908    0.00239860   -0.00733466
     atom   31 type  5   force =     0.00087281   -0.00216574   -0.00750808
     atom   32 type  5   force =    -0.00087281   -0.00216574    0.00750808
     atom   33 type  5   force =    -0.00242741   -0.00365560   -0.00670586
     atom   34 type  5   force =     0.00242742   -0.00365559    0.00670587
     atom   35 type  5   force =     0.00118269    0.00403726    0.00662808
     atom   36 type  5   force =    -0.00118269    0.00403726   -0.00662805
     atom   37 type  2   force =     0.00004935   -0.00030314   -0.00261542
     atom   38 type  2   force =    -0.00004936   -0.00030314    0.00261542
     atom   39 type  2   force =    -0.00012091    0.00026158   -0.00262279
     atom   40 type  2   force =     0.00012092    0.00026158    0.00262272
     The Hubbard contrib.    to forces
     atom    1 type  3   force =     0.00000000    0.00000000    0.00000000
     atom    2 type  3   force =     0.00000000    0.00000000    0.00000000
     atom    3 type  4   force =     0.00000000    0.00000000    0.00000000
     atom    4 type  4   force =     0.00000000    0.00000000    0.00000000
     atom    5 type  4   force =     0.00000000    0.00000000    0.00000000
     atom    6 type  4   force =     0.00000000    0.00000000    0.00000000
     atom    7 type  4   force =     0.00000000    0.00000000    0.00000000
     atom    8 type  4   force =     0.00000000    0.00000000    0.00000000
     atom    9 type  6   force =     0.00000000    0.00000000    0.00000000
     atom   10 type  6   force =     0.00000000    0.00000000    0.00000000
     atom   11 type  6   force =     0.00000000    0.00000000    0.00000000
     atom   12 type  6   force =     0.00000000    0.00000000    0.00000000
     atom   13 type  6   force =     0.00000000    0.00000000    0.00000000
     atom   14 type  6   force =     0.00000000    0.00000000    0.00000000
     atom   15 type  1   force =     0.00000000    0.00000000    0.00000000
     atom   16 type  1   force =     0.00000000    0.00000000    0.00000000
     atom   17 type  5   force =     0.00000000    0.00000000    0.00000000
     atom   18 type  5   force =     0.00000000    0.00000000    0.00000000
     atom   19 type  5   force =     0.00000000    0.00000000    0.00000000
     atom   20 type  5   force =     0.00000000    0.00000000    0.00000000
     atom   21 type  5   force =     0.00000000    0.00000000    0.00000000
     atom   22 type  5   force =     0.00000000    0.00000000    0.00000000
     atom   23 type  5   force =     0.00000000    0.00000000    0.00000000
     atom   24 type  5   force =     0.00000000    0.00000000    0.00000000
     atom   25 type  5   force =     0.00000000    0.00000000    0.00000000
     atom   26 type  5   force =     0.00000000    0.00000000    0.00000000
     atom   27 type  5   force =     0.00000000    0.00000000    0.00000000
     atom   28 type  5   force =     0.00000000    0.00000000    0.00000000
     atom   29 type  5   force =     0.00000000    0.00000000    0.00000000
     atom   30 type  5   force =     0.00000000    0.00000000    0.00000000
     atom   31 type  5   force =     0.00000000    0.00000000    0.00000000
     atom   32 type  5   force =     0.00000000    0.00000000    0.00000000
     atom   33 type  5   force =     0.00000000    0.00000000    0.00000000
     atom   34 type  5   force =     0.00000000    0.00000000    0.00000000
     atom   35 type  5   force =     0.00000000    0.00000000    0.00000000
     atom   36 type  5   force =     0.00000000    0.00000000    0.00000000
     atom   37 type  2   force =     0.00000000    0.00000000    0.00000000
     atom   38 type  2   force =     0.00000000    0.00000000    0.00000000
     atom   39 type  2   force =     0.00000000    0.00000000    0.00000000
     atom   40 type  2   force =     0.00000000    0.00000000    0.00000000
     The SCF correction term to forces
     atom    1 type  3   force =    -0.00000000   -0.00000259    0.00000000
     atom    2 type  3   force =    -0.00000000    0.00000865    0.00000000
     atom    3 type  4   force =     0.00000000    0.00001545   -0.00000000
     atom    4 type  4   force =    -0.00000000   -0.00002124   -0.00000000
     atom    5 type  4   force =     0.00000000    0.00000281   -0.00000000
     atom    6 type  4   force =     0.00000000   -0.00001661   -0.00000000
     atom    7 type  4   force =     0.00000000    0.00000190   -0.00000000
     atom    8 type  4   force =    -0.00000000    0.00001681   -0.00000000
     atom    9 type  6   force =     0.00000220   -0.00001427    0.00000773
     atom   10 type  6   force =    -0.00000220   -0.00001427   -0.00000773
     atom   11 type  6   force =     0.00000301    0.00001307    0.00000096
     atom   12 type  6   force =    -0.00000301    0.00001307   -0.00000096
     atom   13 type  6   force =     0.00000114   -0.00000764    0.00000140
     atom   14 type  6   force =    -0.00000114   -0.00000764   -0.00000140
     atom   15 type  1   force =     0.00000399    0.00000311   -0.00000553
     atom   16 type  1   force =    -0.00000399    0.00000311    0.00000553
     atom   17 type  5   force =    -0.00000435   -0.00000260    0.00000918
     atom   18 type  5   force =     0.00000435   -0.00000260   -0.00000918
     atom   19 type  5   force =     0.00000187    0.00000843   -0.00000211
     atom   20 type  5   force =    -0.00000187    0.00000843    0.00000211
     atom   21 type  5   force =     0.00000229   -0.00000219    0.00001297
     atom   22 type  5   force =    -0.00000229   -0.00000219   -0.00001297
     atom   23 type  5   force =    -0.00000062   -0.00000612    0.00000248
     atom   24 type  5   force =     0.00000062   -0.00000612   -0.00000248
     atom   25 type  5   force =     0.00001528   -0.00000137    0.00000527
     atom   26 type  5   force =    -0.00001528   -0.00000137   -0.00000527
     atom   27 type  5   force =    -0.00000438    0.00000236    0.00000097
     atom   28 type  5   force =     0.00000438    0.00000236   -0.00000097
     atom   29 type  5   force =     0.00000757    0.00001570   -0.00000109
     atom   30 type  5   force =    -0.00000757    0.00001570    0.00000109
     atom   31 type  5   force =     0.00000808    0.00000629    0.00000036
     atom   32 type  5   force =    -0.00000808    0.00000629   -0.00000036
     atom   33 type  5   force =    -0.00000255   -0.00002915   -0.00000433
     atom   34 type  5   force =     0.00000255   -0.00002915    0.00000433
     atom   35 type  5   force =     0.00001280    0.00000130   -0.00001235
     atom   36 type  5   force =    -0.00001280    0.00000130    0.00001235
     atom   37 type  2   force =    -0.00000094   -0.00000859    0.00000451
     atom   38 type  2   force =     0.00000094   -0.00000859   -0.00000451
     atom   39 type  2   force =     0.00000315    0.00000846    0.00000344
     atom   40 type  2   force =    -0.00000315    0.00000846   -0.00000344

     DFT-D3 dispersion contribution to forces:
     atom    1 type  3   force =     0.00000000    0.00091323   -0.00000000
     atom    2 type  3   force =     0.00000000   -0.00089190   -0.00000000
     atom    3 type  4   force =     0.00000000    0.00029315    0.00000000
     atom    4 type  4   force =     0.00000000    0.00149007    0.00000000
     atom    5 type  4   force =    -0.00000000   -0.00170651    0.00000000
     atom    6 type  4   force =    -0.00000000   -0.00048113    0.00000000
     atom    7 type  4   force =    -0.00000000    0.00164400    0.00000000
     atom    8 type  4   force =    -0.00000000   -0.00107403    0.00000000
     atom    9 type  6   force =     0.00012076   -0.00008580   -0.00028740
     atom   10 type  6   force =    -0.00012076   -0.00008580    0.00028740
     atom   11 type  6   force =     0.00008555    0.00002990    0.00024553
     atom   12 type  6   force =    -0.00008555    0.00002990   -0.00024553
     atom   13 type  6   force =    -0.00010462    0.00005598   -0.00022874
     atom   14 type  6   force =     0.00010462    0.00005598    0.00022874
     atom   15 type  1   force =    -0.00005626   -0.00001624   -0.00118374
     atom   16 type  1   force =     0.00005626   -0.00001624    0.00118374
     atom   17 type  5   force =     0.00000661    0.00000664    0.00047125
     atom   18 type  5   force =    -0.00000661    0.00000664   -0.00047125
     atom   19 type  5   force =    -0.00001903    0.00002385   -0.00046151
     atom   20 type  5   force =     0.00001903    0.00002385    0.00046151
     atom   21 type  5   force =     0.00000435   -0.00008661    0.00048607
     atom   22 type  5   force =    -0.00000435   -0.00008661   -0.00048607
     atom   23 type  5   force =    -0.00005283    0.00000861    0.00004211
     atom   24 type  5   force =     0.00005283    0.00000861   -0.00004211
     atom   25 type  5   force =    -0.00007952    0.00079013    0.00019092
     atom   26 type  5   force =     0.00007952    0.00079013   -0.00019092
     atom   27 type  5   force =     0.00076131    0.00004818    0.00009580
     atom   28 type  5   force =    -0.00076131    0.00004818   -0.00009580
     atom   29 type  5   force =     0.00037887   -0.00058492    0.00003189
     atom   30 type  5   force =    -0.00037888   -0.00058492   -0.00003189
     atom   31 type  5   force =    -0.00022675    0.00038082   -0.00004405
     atom   32 type  5   force =     0.00022675    0.00038082    0.00004405
     atom   33 type  5   force =     0.00079159   -0.00040168    0.00033268
     atom   34 type  5   force =    -0.00079159   -0.00040168   -0.00033268
     atom   35 type  5   force =     0.00050483   -0.00029485   -0.00037481
     atom   36 type  5   force =    -0.00050483   -0.00029485    0.00037481
     atom   37 type  2   force =     0.00000547    0.00004784   -0.00048424
     atom   38 type  2   force =    -0.00000547    0.00004784    0.00048424
     atom   39 type  2   force =     0.00004536   -0.00001529   -0.00052891
     atom   40 type  2   force =    -0.00004536   -0.00001529    0.00052891

     Total force =     0.002994     Total SCF correction =     0.000086

     DFT-D3 dispersion Force =     0.004825
     Energy error            =      1.9E-05 Ry
     Gradient error          =      9.4E-04 Ry/Bohr

     bfgs converged in  15 scf cycles and  14 bfgs steps
     (criteria: energy <  1.0E-04 Ry, force <  1.0E-03 Ry/Bohr)

     End of BFGS Geometry Optimization

     Final energy             =   -2510.0343608141 Ry

     File ./temp/phl-f.bfgs deleted, as requested
Begin final coordinates

ATOMIC_POSITIONS (crystal)
K                0.0000000000        0.4880181586        0.0000000000
K                0.5000000000        0.0096370708        0.0000000000
Mg              -0.0000000000        0.0038372684        0.5000000000
Mg              -0.0000000000        0.3321576308        0.5000000000
Mg              -0.0000000000        0.6662735008        0.5000000000
Mg               0.5000000000        0.4944556460        0.5000000000
Mg               0.5000000000        0.8331095147        0.5000000000
Mg               0.5000000000        0.1736938014        0.5000000000
Si               0.0821279347        0.1649405091        0.2219980998
Si               0.9178720513        0.1649405091        0.7780018702
Si               0.9337206712        0.8339063832        0.7723274673
Si               0.0662793428        0.8339063832        0.2276725177
Si               0.5647746815        0.6660986429        0.2252755793
Si               0.4352253185        0.6660986429        0.7747244057
Al               0.4164533705        0.3311740723        0.7761623488
Al               0.5835466295        0.3311740723        0.2238376212
O                0.1283089723        0.1628136104        0.3862443812
O                0.8716909977        0.1628136104        0.6137556478
O                0.8745017344        0.8325945064        0.6098043705
O                0.1254982656        0.8325945064        0.3901955995
O                0.6252940571        0.6691742437        0.3886637861
O                0.3747059139        0.6691742437        0.6113362139
O                0.3596003143        0.3345390809        0.6023037031
O                0.6403996857        0.3345390809        0.3976963269
O                0.3368592485        0.2083455068        0.1646701039
O                0.6631407515        0.2083455068        0.8353299251
O                1.0031489914        0.9967218538        0.1679383267
O               -0.0031489954        0.9967218538        0.8320616583
O                0.6840854715        0.7725240203        0.8307382086
O                0.3159145585        0.7725240203        0.1692617764
O                0.8142930762        0.7342944307        0.1683686816
O                0.1857069238        0.7342944307        0.8316313184
O                0.5036679038        0.5076664102        0.1614113480
O                0.4963321262        0.5076664102        0.8385886670
O                0.1499428996        0.2715486663        0.8410116005
O                0.8500571154        0.2715486663        0.1589884295
F                0.1309752727        0.5064687490        0.3985004502
F                0.8690247423        0.5064687490        0.6014995498
F                0.6342633416        0.9981245588        0.4030427013
F                0.3657366584        0.9981245588        0.5969573287
End final coordinates

     Writing all to output data dir ./temp/phl-f.save/ :
     XML data file, charge density, pseudopotentials, collected wavefunctions

     General routines

     Parallel routines

     PAW routines

   This run was terminated on:   8:39: 0  23Jan2025

   JOB DONE.