     Program PWSCF v.7.3.1 starts on 19Dec2024 at 16:36:22

     Reading input from vc_relax.in

     Current dimensions of program PWSCF are:
     Max number of different atomic species (ntypx) = 10
     Max number of k-points (npk) =  40000
     Max angular momentum in pseudopotentials (lmaxx) =  4
     file Al.pbe-n-kjpaw_psl.1.0.0.UPF: wavefunction(s)  3S 3P renormalized
     file Fe.pbe-spn-kjpaw_psl.1.0.0.UPF: wavefunction(s)  3P 3D renormalized
     file H.pbe-kjpaw_psl.1.0.0.UPF: wavefunction(s)  1S renormalized
     file K.pbe-spn-kjpaw_psl.1.0.0.UPF: wavefunction(s)  3S renormalized
     file Mg.pbe-spnl-kjpaw_psl.1.0.0.UPF: wavefunction(s)  2P renormalized
     file O.pbe-n-kjpaw_psl.1.0.0.UPF: wavefunction(s)  2S 2P renormalized
     file Si.pbe-n-kjpaw_psl.1.0.0.UPF: wavefunction(s)  3S 3P renormalized

     R & G space division:  proc/nbgrp/npool/nimage =       8
     Subspace diagonalization in iterative solution of the eigenvalue problem:
     one sub-group per band group will be used

     Using Slab Decomposition

     bravais-lattice index     =          -12
     lattice parameter (alat)  =       9.9883  a.u.
     unit-cell volume          =    3285.8057 (a.u.)^3
     number of atoms/cell      =           44
     number of atomic types    =            7
     number of electrons       =       262.00
     number of Kohn-Sham states=          157
     kinetic-energy cutoff     =      60.0000  Ry
     charge density cutoff     =     480.0000  Ry
     scf convergence threshold =      1.0E-06
     mixing beta               =       0.7000
     number of iterations used =            8  plain     mixing
     energy convergence thresh.=      1.0E-04
     force convergence thresh. =      1.0E-03
     press convergence thresh. =      5.0E-01
     Exchange-correlation= SLA  PW   PBX  PBC
                           (   1   4   3   4   0   0   0)
     nstep                     =           50

     celldm(1)=   9.988336  celldm(2)=   1.736567  celldm(3)=   1.928182
     celldm(4)=   0.000000  celldm(5)=  -0.174018  celldm(6)=   0.000000

     crystal axes: (cart. coord. in units of alat)
               a(1) = (   1.000000   0.000000   0.000000 )
               a(2) = (   0.000000   1.736567   0.000000 )
               a(3) = (  -0.335538   0.000000   1.898763 )

     reciprocal axes: (cart. coord. in units 2 pi/alat)
               b(1) = (  1.000000 -0.000000  0.176714 )
               b(2) = (  0.000000  0.575849 -0.000000 )
               b(3) = (  0.000000  0.000000  0.526659 )

     PseudoPot. # 1 for Al read from file:
     ./../../pseudos/Al.pbe-n-kjpaw_psl.1.0.0.UPF
     MD5 check sum: 502b6b27b9c6270cab5dd1084b96fa6d
     Pseudo is Projector augmented-wave + core cor, Zval =  3.0
     Generated using &quot;atomic&quot; code by A. Dal Corso  v.6.3
     Shape of augmentation charge: PSQ
     Using radial grid of 1135 points,  6 beta functions with:
                l(1) =   0
                l(2) =   0
                l(3) =   1
                l(4) =   1
                l(5) =   2
                l(6) =   2
     Q(r) pseudized with 0 coefficients

     PseudoPot. # 2 for Fe read from file:
     ./../../pseudos/Fe.pbe-spn-kjpaw_psl.1.0.0.UPF
     MD5 check sum: fc81f059e5c5069939230b1155715ae8
     Pseudo is Projector augmented-wave + core cor, Zval = 16.0
     Generated using &quot;atomic&quot; code by A. Dal Corso  v.6.3
     Shape of augmentation charge: PSQ
     Using radial grid of 1191 points,  6 beta functions with:
                l(1) =   0
                l(2) =   0
                l(3) =   1
                l(4) =   1
                l(5) =   2
                l(6) =   2
     Q(r) pseudized with 0 coefficients

     PseudoPot. # 3 for H  read from file:
     ./../../pseudos/H.pbe-kjpaw_psl.1.0.0.UPF
     MD5 check sum: d81a744832360e4a8af0b0b5b123bc2a
     Pseudo is Projector augmented-wave, Zval =  1.0
     Generated using &quot;atomic&quot; code by A. Dal Corso  v.6.3MaX
     Shape of augmentation charge: PSQ
     Using radial grid of  929 points,  2 beta functions with:
                l(1) =   0
                l(2) =   0
     Q(r) pseudized with 0 coefficients

     PseudoPot. # 4 for K  read from file:
     ./../../pseudos/K.pbe-spn-kjpaw_psl.1.0.0.UPF
     MD5 check sum: 34cc42130a09071ebe376fd42eb21491
     Pseudo is Projector augmented-wave + core cor, Zval =  9.0
     Generated using &quot;atomic&quot; code by A. Dal Corso  v.6.2.2
     Shape of augmentation charge: PSQ
     Using radial grid of 1165 points,  6 beta functions with:
                l(1) =   0
                l(2) =   0
                l(3) =   1
                l(4) =   1
                l(5) =   2
                l(6) =   2
     Q(r) pseudized with 0 coefficients

     PseudoPot. # 5 for Mg read from file:
     ./../../pseudos/Mg.pbe-spnl-kjpaw_psl.1.0.0.UPF
     MD5 check sum: fda14e0d92a6a9a5ebed782e5a4b3067
     Pseudo is Projector augmented-wave + core cor, Zval = 10.0
     Generated using &quot;atomic&quot; code by A. Dal Corso  v.6.3
     Shape of augmentation charge: PSQ
     Using radial grid of 1129 points,  4 beta functions with:
                l(1) =   0
                l(2) =   0
                l(3) =   1
                l(4) =   1
     Q(r) pseudized with 0 coefficients

     PseudoPot. # 6 for O  read from file:
     ./../../pseudos/O.pbe-n-kjpaw_psl.1.0.0.UPF
     MD5 check sum: e99d9cef9b487d1ca56f5b95ecd0fd7a
     Pseudo is Projector augmented-wave + core cor, Zval =  6.0
     Generated using &quot;atomic&quot; code by A. Dal Corso  v.6.3
     Shape of augmentation charge: PSQ
     Using radial grid of 1095 points,  4 beta functions with:
                l(1) =   0
                l(2) =   0
                l(3) =   1
                l(4) =   1
     Q(r) pseudized with 0 coefficients

     PseudoPot. # 7 for Si read from file:
     ./../../pseudos/Si.pbe-n-kjpaw_psl.1.0.0.UPF
     MD5 check sum: c39c59da582df4a0d9f10159256ea34e
     Pseudo is Projector augmented-wave + core cor, Zval =  4.0
     Generated using &quot;atomic&quot; code by A. Dal Corso  v.6.3
     Shape of augmentation charge: PSQ
     Using radial grid of 1141 points,  6 beta functions with:
                l(1) =   0
                l(2) =   0
                l(3) =   1
                l(4) =   1
                l(5) =   2
                l(6) =   2
     Q(r) pseudized with 0 coefficients

     atomic species   valence    mass     pseudopotential
     Al                3.00    26.98154     Al( 1.00)
     Fe               16.00    55.84500     Fe( 1.00)
     H                 1.00     1.00794     H ( 1.00)
     K                 9.00    39.09830     K ( 1.00)
     Mg               10.00    24.30500     Mg( 1.00)
     O                 6.00    15.99940     O ( 1.00)
     Si                4.00    28.08550     Si( 1.00)

      2 Sym. Ops. (no inversion) found

                                    s                        frac. trans.

      isym =  1     identity

 cryst.   s( 1) = (     1          0          0      )
                  (     0          1          0      )
                  (     0          0          1      )

 cart.    s( 1) = (  1.0000000  0.0000000  0.0000000 )
                  (  0.0000000  1.0000000  0.0000000 )
                  (  0.0000000  0.0000000  1.0000000 )

      isym =  2     180 deg rotation - cart. axis [0,1,0]

[...]

     point group C_2  (2)
     there are  2 classes
     the character table:

       E     C2
A      1.00  1.00
B      1.00 -1.00

     the symmetry operations in each class and the name of the first element:

     E        1
          identity
     C2       2
          180 deg rotation - cart. axis [0,1,0]

   Cartesian axes

     site n.     atom                  positions (alat units)
         1        K      tau(   1) = (   0.0000000   0.8604066   0.0000000  )
         2        K      tau(   2) = (   0.5000000   0.0051572   0.0000000  )
         3        Mg     tau(   3) = (  -0.1677688   0.0060089   0.9493815  )
         4        Mg     tau(   4) = (  -0.1677688   0.5803486   0.9493815  )
         5        Mg     tau(   5) = (  -0.1677688   1.1503664   0.9493815  )
         6        Mg     tau(   6) = (   0.3322312   1.4469112   0.9493815  )
         7        Mg     tau(   7) = (   0.3322312   0.3019464   0.9493815  )
         8        Fe     tau(   8) = (   0.3322312   0.8658231   0.9493815  )
         9        Si     tau(   9) = (   0.0072419   0.2867216   0.4242270  )
        10        Si     tau(  10) = (   0.6572205   0.2867216   1.4745362  )
        11        Si     tau(  11) = (   0.6747406   1.4483874   1.4638213  )
        12        Si     tau(  12) = (  -0.0102782   1.4483874   0.4349418  )
        13        Si     tau(  13) = (   0.4888125   1.1559844   0.4294214  )
        14        Si     tau(  14) = (   0.1756499   1.1559844   1.4693418  )
        15        Al     tau(  15) = (   0.1576592   0.5780386   1.4720721  )
        16        Al     tau(  16) = (   0.5068032   0.5780386   0.4266909  )
        17        O      tau(  17) = (  -0.0033968   0.2842964   0.7325588  )
        18        O      tau(  18) = (   0.6678592   0.2842964   1.1662042  )
        19        O      tau(  19) = (   0.6695090   1.4448683   1.1579971  )
        20        O      tau(  20) = (  -0.0050466   1.4448683   0.7407659  )
        21        O      tau(  21) = (   0.4971182   1.1584064   0.7374685  )
        22        O      tau(  22) = (   0.1673442   1.1584064   1.1612946  )
        23        O      tau(  23) = (   0.1625332   0.5859512   1.1439544  )
        24        O      tau(  24) = (   0.5019291   0.5859512   0.7548087  )
        25        O      tau(  25) = (   0.2877293   0.3513760   0.3160692  )
        26        O      tau(  26) = (   0.3767330   0.3513760   1.5826938  )
        27        O      tau(  27) = (   0.9367897   1.7316211   0.3190373  )
        28        O      tau(  28) = (  -0.2723273   1.7316211   1.5797258  )
        29        O      tau(  29) = (   0.4003863   1.3499671   1.5776511  )
        30        O      tau(  30) = (   0.2640762   1.3499671   0.3211120  )
        31        O      tau(  31) = (   0.7627204   1.2672052   0.3184263  )
        32        O      tau(  32) = (  -0.0982580   1.2672052   1.5803368  )
        33        O      tau(  33) = (   0.4374427   0.8822828   0.3036232  )
        34        O      tau(  34) = (   0.2270198   0.8822828   1.5951399  )
        35        O      tau(  35) = (  -0.1378698   0.4820513   1.5937664  )
        36        O      tau(  36) = (   0.8023322   0.4820513   0.3049967  )
        37        O      tau(  37) = (   0.0065011   0.8721661   0.7498981  )
        38        O      tau(  38) = (   0.6579613   0.8721661   1.1488649  )
        39        O      tau(  39) = (   0.4986210   1.7356434   0.7529947  )
        40        O      tau(  40) = (   0.1658414   1.7356434   1.1457684  )
        41        H      tau(  41) = (   0.0248070   0.8537021   0.5685308  )
        42        H      tau(  42) = (   0.6396554   0.8537021   1.3302323  )
        43        H      tau(  43) = (   0.4944516   0.0251736   0.5722089  )
        44        H      tau(  44) = (   0.1700109   0.0251736   1.3265542  )

[...]
     atom   44 type  3   force =    -0.03932586   -0.38308432   -5.33813032
     The core correction contribution to forces
     atom    1 type  4   force =     0.00000000   -0.00138477    0.00000000
     atom    2 type  4   force =    -0.00000000    0.00152660    0.00000000
     atom    3 type  5   force =     0.00000000    0.00024308    0.00000000
     atom    4 type  5   force =    -0.00000000    0.00027403   -0.00000000
     atom    5 type  5   force =     0.00000000   -0.00029232    0.00000000
     atom    6 type  5   force =     0.00000000    0.00025867    0.00000000
     atom    7 type  5   force =     0.00000000    0.00045934    0.00000000
     atom    8 type  2   force =    -0.00000000   -0.00288379    0.00000000
     atom    9 type  7   force =     0.00265290    0.01075661    0.00611573
     atom   10 type  7   force =    -0.00265297    0.01075662   -0.00611565
     atom   11 type  7   force =     0.00023366    0.00317397   -0.01334180
     atom   12 type  7   force =    -0.00023364    0.00317397    0.01334185
     atom   13 type  7   force =    -0.00179140   -0.01191337    0.00935570
     atom   14 type  7   force =     0.00179139   -0.01191339   -0.00935557
     atom   15 type  1   force =    -0.00056093   -0.00189853   -0.00908057
     atom   16 type  1   force =     0.00056093   -0.00189853    0.00908053
     atom   17 type  6   force =    -0.00012188    0.00021615    0.00648889
     atom   18 type  6   force =     0.00012186    0.00021615   -0.00648890
     atom   19 type  6   force =    -0.00008412   -0.00004497   -0.00702296
     atom   20 type  6   force =     0.00008414   -0.00004497    0.00702296
     atom   21 type  6   force =     0.00093596    0.00098861    0.00638075
     atom   22 type  6   force =    -0.00093596    0.00098861   -0.00638075
     atom   23 type  6   force =    -0.00089202   -0.00135975   -0.00257228
     atom   24 type  6   force =     0.00089201   -0.00135976    0.00257229
     atom   25 type  6   force =     0.00476039   -0.00194712   -0.00579807
     atom   26 type  6   force =    -0.00476040   -0.00194713    0.00579804
     atom   27 type  6   force =    -0.00381478    0.00081461   -0.00713942
     atom   28 type  6   force =     0.00381480    0.00081461    0.00713940
     atom   29 type  6   force =    -0.00191764    0.00280608    0.00726871
     atom   30 type  6   force =     0.00191764    0.00280609   -0.00726868
     atom   31 type  6   force =     0.00114142   -0.00252667   -0.00752725
     atom   32 type  6   force =    -0.00114142   -0.00252667    0.00752725
     atom   33 type  6   force =    -0.00278787   -0.00346198   -0.00683376
     atom   34 type  6   force =     0.00278788   -0.00346197    0.00683378
     atom   35 type  6   force =     0.00099944    0.00429643    0.00645020
     atom   36 type  6   force =    -0.00099944    0.00429642   -0.00645020
     atom   37 type  6   force =    -0.00302237    0.00091232    0.01058055
     atom   38 type  6   force =     0.00302236    0.00091232   -0.01058053
     atom   39 type  6   force =     0.00000435   -0.00146158    0.01097730
     atom   40 type  6   force =    -0.00000434   -0.00146159   -0.01097732
     atom   41 type  3   force =     0.00000000    0.00000000    0.00000000
     atom   42 type  3   force =     0.00000000    0.00000000    0.00000000
     atom   43 type  3   force =     0.00000000    0.00000000    0.00000000
     atom   44 type  3   force =     0.00000000    0.00000000    0.00000000
     The Hubbard contrib.    to forces
     atom    1 type  4   force =     0.00000000    0.00000000    0.00000000
     atom    2 type  4   force =     0.00000000    0.00000000    0.00000000
     atom    3 type  5   force =     0.00000000    0.00000000    0.00000000
     atom    4 type  5   force =     0.00000000    0.00000000    0.00000000
     atom    5 type  5   force =     0.00000000    0.00000000    0.00000000
     atom    6 type  5   force =     0.00000000    0.00000000    0.00000000
     atom    7 type  5   force =     0.00000000    0.00000000    0.00000000
     atom    8 type  2   force =     0.00000000    0.00000000    0.00000000
     atom    9 type  7   force =     0.00000000    0.00000000    0.00000000
     atom   10 type  7   force =     0.00000000    0.00000000    0.00000000
     atom   11 type  7   force =     0.00000000    0.00000000    0.00000000
     atom   12 type  7   force =     0.00000000    0.00000000    0.00000000
     atom   13 type  7   force =     0.00000000    0.00000000    0.00000000
     atom   14 type  7   force =     0.00000000    0.00000000    0.00000000
     atom   15 type  1   force =     0.00000000    0.00000000    0.00000000
     atom   16 type  1   force =     0.00000000    0.00000000    0.00000000
     atom   17 type  6   force =     0.00000000    0.00000000    0.00000000
     atom   18 type  6   force =     0.00000000    0.00000000    0.00000000
     atom   19 type  6   force =     0.00000000    0.00000000    0.00000000
     atom   20 type  6   force =     0.00000000    0.00000000    0.00000000
     atom   21 type  6   force =     0.00000000    0.00000000    0.00000000
     atom   22 type  6   force =     0.00000000    0.00000000    0.00000000
     atom   23 type  6   force =     0.00000000    0.00000000    0.00000000
     atom   24 type  6   force =     0.00000000    0.00000000    0.00000000
     atom   25 type  6   force =     0.00000000    0.00000000    0.00000000
     atom   26 type  6   force =     0.00000000    0.00000000    0.00000000
     atom   27 type  6   force =     0.00000000    0.00000000    0.00000000
     atom   28 type  6   force =     0.00000000    0.00000000    0.00000000
     atom   29 type  6   force =     0.00000000    0.00000000    0.00000000
     atom   30 type  6   force =     0.00000000    0.00000000    0.00000000
     atom   31 type  6   force =     0.00000000    0.00000000    0.00000000
     atom   32 type  6   force =     0.00000000    0.00000000    0.00000000
     atom   33 type  6   force =     0.00000000    0.00000000    0.00000000
     atom   34 type  6   force =     0.00000000    0.00000000    0.00000000
     atom   35 type  6   force =     0.00000000    0.00000000    0.00000000
     atom   36 type  6   force =     0.00000000    0.00000000    0.00000000
     atom   37 type  6   force =     0.00000000    0.00000000    0.00000000
     atom   38 type  6   force =     0.00000000    0.00000000    0.00000000
     atom   39 type  6   force =     0.00000000    0.00000000    0.00000000
     atom   40 type  6   force =     0.00000000    0.00000000    0.00000000
     atom   41 type  3   force =     0.00000000    0.00000000    0.00000000
     atom   42 type  3   force =     0.00000000    0.00000000    0.00000000
     atom   43 type  3   force =     0.00000000    0.00000000    0.00000000
     atom   44 type  3   force =     0.00000000    0.00000000    0.00000000
     The SCF correction term to forces
     atom    1 type  4   force =    -0.00000000    0.00002152    0.00000000
     atom    2 type  4   force =    -0.00000000   -0.00002094    0.00000000
     atom    3 type  5   force =    -0.00000000    0.00000673   -0.00000000
     atom    4 type  5   force =    -0.00000000   -0.00003682   -0.00000000
     atom    5 type  5   force =    -0.00000000    0.00003365   -0.00000000
     atom    6 type  5   force =     0.00000000    0.00000442   -0.00000000
     atom    7 type  5   force =     0.00000000   -0.00005454    0.00000000
     atom    8 type  2   force =     0.00000000    0.00007073   -0.00000000
     atom    9 type  7   force =    -0.00000403   -0.00000895    0.00000917
     atom   10 type  7   force =     0.00000403   -0.00000895   -0.00000917
     atom   11 type  7   force =     0.00000185   -0.00000006    0.00000267
     atom   12 type  7   force =    -0.00000185   -0.00000006   -0.00000267
     atom   13 type  7   force =     0.00000391    0.00001545    0.00000407
     atom   14 type  7   force =    -0.00000391    0.00001545   -0.00000407
     atom   15 type  1   force =    -0.00000262   -0.00000414    0.00000135
     atom   16 type  1   force =     0.00000262   -0.00000414   -0.00000135
     atom   17 type  6   force =    -0.00000541   -0.00001363    0.00002728
     atom   18 type  6   force =     0.00000541   -0.00001363   -0.00002728
     atom   19 type  6   force =    -0.00000031    0.00000732   -0.00002180
     atom   20 type  6   force =     0.00000031    0.00000732    0.00002180
     atom   21 type  6   force =     0.00000150    0.00001635    0.00002262
     atom   22 type  6   force =    -0.00000150    0.00001635   -0.00002262
     atom   23 type  6   force =    -0.00000947   -0.00001657   -0.00000237
     atom   24 type  6   force =     0.00000947   -0.00001657    0.00000237
     atom   25 type  6   force =     0.00001085   -0.00000774   -0.00000113
     atom   26 type  6   force =    -0.00001085   -0.00000774    0.00000113
     atom   27 type  6   force =    -0.00000699   -0.00001114   -0.00000659
     atom   28 type  6   force =     0.00000699   -0.00001114    0.00000659
     atom   29 type  6   force =    -0.00000046    0.00000848    0.00001393
     atom   30 type  6   force =     0.00000046    0.00000848   -0.00001393
     atom   31 type  6   force =     0.00000394    0.00000469   -0.00001604
     atom   32 type  6   force =    -0.00000394    0.00000469    0.00001604
     atom   33 type  6   force =     0.00000048    0.00000583   -0.00000618
     atom   34 type  6   force =    -0.00000048    0.00000583    0.00000618
     atom   35 type  6   force =     0.00000727    0.00000148    0.00000141
     atom   36 type  6   force =    -0.00000727    0.00000148   -0.00000141
     atom   37 type  6   force =    -0.00000922    0.00000825   -0.00000487
     atom   38 type  6   force =     0.00000922    0.00000825    0.00000487
     atom   39 type  6   force =     0.00000155   -0.00000294    0.00001128
     atom   40 type  6   force =    -0.00000155   -0.00000294   -0.00001128
     atom   41 type  3   force =    -0.00000137    0.00000118    0.00000116
     atom   42 type  3   force =     0.00000137    0.00000118   -0.00000116
     atom   43 type  3   force =     0.00000045   -0.00000124    0.00000429
     atom   44 type  3   force =    -0.00000045   -0.00000124   -0.00000429

     Dispersion contribution to forces:
     atom    1 type  4   force =     0.00000000    0.00224249    0.00000000
     atom    2 type  4   force =    -0.00000000   -0.00167083    0.00000000
     atom    3 type  5   force =    -0.00000000    0.00057947    0.00000000
     atom    4 type  5   force =    -0.00000000   -0.00226676    0.00000000
     atom    5 type  5   force =     0.00000000    0.00192428    0.00000000
     atom    6 type  5   force =    -0.00000000    0.00382403    0.00000000
     atom    7 type  5   force =     0.00000000   -0.00438290    0.00000000
     atom    8 type  2   force =    -0.00000000    0.00087937    0.00000000
     atom    9 type  7   force =    -0.00005883   -0.00036195    0.00124311
     atom   10 type  7   force =     0.00005883   -0.00036195   -0.00124312
     atom   11 type  7   force =    -0.00015849    0.00006050   -0.00076462
     atom   12 type  7   force =     0.00015849    0.00006050    0.00076462
     atom   13 type  7   force =     0.00059603    0.00147783   -0.00082409
     atom   14 type  7   force =    -0.00059603    0.00147783    0.00082408
     atom   15 type  1   force =    -0.00054339   -0.00109823   -0.00132644
     atom   16 type  1   force =     0.00054339   -0.00109823    0.00132645
     atom   17 type  6   force =    -0.00011425    0.00027460    0.00043659
     atom   18 type  6   force =     0.00011425    0.00027460   -0.00043658
     atom   19 type  6   force =     0.00002098   -0.00025805   -0.00032356
     atom   20 type  6   force =    -0.00002098   -0.00025805    0.00032356
     atom   21 type  6   force =    -0.00027201   -0.00025261    0.00038118
     atom   22 type  6   force =     0.00027201   -0.00025261   -0.00038118
     atom   23 type  6   force =    -0.00006555   -0.00015280    0.00132453
     atom   24 type  6   force =     0.00006555   -0.00015280   -0.00132454
     atom   25 type  6   force =     0.00031460    0.00195446    0.00154813
     atom   26 type  6   force =    -0.00031460    0.00195446   -0.00154813
     atom   27 type  6   force =     0.00027978    0.00013406    0.00069443
     atom   28 type  6   force =    -0.00027978    0.00013406   -0.00069443
     atom   29 type  6   force =    -0.00006957    0.00011504   -0.00021465
     atom   30 type  6   force =     0.00006957    0.00011504    0.00021465
     atom   31 type  6   force =     0.00022591   -0.00034135   -0.00021596
     atom   32 type  6   force =    -0.00022591   -0.00034135    0.00021596
     atom   33 type  6   force =     0.00104677   -0.00145122    0.00125394
     atom   34 type  6   force =    -0.00104677   -0.00145122   -0.00125394
     atom   35 type  6   force =     0.00150066   -0.00033395   -0.00131426
     atom   36 type  6   force =    -0.00150066   -0.00033395    0.00131426
     atom   37 type  6   force =    -0.00002841    0.00009081   -0.00238121
     atom   38 type  6   force =     0.00002841    0.00009082    0.00238121
     atom   39 type  6   force =     0.00017282    0.00006229   -0.00252190
     atom   40 type  6   force =    -0.00017282    0.00006229    0.00252190
     atom   41 type  3   force =    -0.00117811   -0.00030981   -0.00068759
     atom   42 type  3   force =     0.00117811   -0.00030981    0.00068759
     atom   43 type  3   force =     0.00034103   -0.00017421    0.00092940
     atom   44 type  3   force =    -0.00034103   -0.00017421   -0.00092940

     Total force =     0.004161     Total SCF correction =     0.000143

     Total Dispersion Force =     0.011676

     Computing stress (Cartesian axis) and pressure

          total   stress  (Ry/bohr**3)                   (kbar)     P=        0.10
   0.00000032   0.00000000   0.00000084            0.05        0.00        0.12
   0.00000000   0.00000149   0.00000000            0.00        0.22        0.00
   0.00000084   0.00000000   0.00000021            0.12        0.00        0.03

     kinetic stress (kbar)  21007.71      0.00     11.45
                                0.00  21006.27      0.00
                               11.45      0.00  20718.97

     local   stress (kbar) -39988.63      0.00     97.94
                                0.00 -39673.65      0.00
                               97.94      0.00  18507.76

     nonloc. stress (kbar)   3949.02      0.00      0.52
                                0.00   3950.75      0.00
                                0.52      0.00   3932.43

     hartree stress (kbar)  22757.13     -0.00    -42.92
                               -0.00  22609.06      0.00
                              -42.92      0.00  -5836.59

     exc-cor stress (kbar)  -2940.43     -0.00     -0.04
                               -0.00  -2940.63     -0.00
                               -0.04     -0.00  -2937.36

     corecor stress (kbar)  -1937.59      0.00     -0.07
                                0.00  -1937.72      0.00
                               -0.07      0.00  -1939.33

     ewald   stress (kbar)  -2817.36     -0.00    -66.76
                               -0.00  -2983.99     -0.00
                              -66.76     -0.00 -32416.79

     hubbard stress (kbar)      0.00      0.00      0.00
                                0.00      0.00      0.00
                                0.00      0.00      0.00

     DFT-D   stress (kbar)    -29.78     -0.00      0.00
                               -0.00    -29.87      0.00
                                0.00      0.00    -29.04

     XDM     stress (kbar)      0.00      0.00      0.00
                                0.00      0.00      0.00
                                0.00      0.00      0.00

     dft-nl  stress (kbar)      0.00      0.00      0.00
                                0.00      0.00      0.00
                                0.00      0.00      0.00

     TS-vdW  stress (kbar)      0.00      0.00      0.00
                                0.00      0.00      0.00
                                0.00      0.00      0.00

     MDB     stress (kbar)      0.00      0.00      0.00
                                0.00      0.00      0.00
                                0.00      0.00      0.00

     3D-RISM stress (kbar)      0.00      0.00      0.00
                                0.00      0.00      0.00
                                0.00      0.00      0.00

     Writing all to output data dir ./temp/phl-fe1.save/ :
     XML data file, charge density, pseudopotentials, collected wavefunctions

     General routines

     Parallel routines

     PAW routines

   This run was terminated on:   1:21:17  20Dec2024

   JOB DONE.