     Program PWSCF v.7.3.1 starts on 23Jan2025 at 10:44: 7

     Reading input from vc_relax.in

     Current dimensions of program PWSCF are:
     Max number of different atomic species (ntypx) = 10
     Max number of k-points (npk) =  40000
     Max angular momentum in pseudopotentials (lmaxx) =  4
     file Al.pbe-n-kjpaw_psl.1.0.0.UPF: wavefunction(s)  3S 3P renormalized
     file F.pbe-n-kjpaw_psl.1.0.0.UPF: wavefunction(s)  2S 2P renormalized
     file K.pbe-spn-kjpaw_psl.1.0.0.UPF: wavefunction(s)  3S renormalized
     file Mg.pbe-spnl-kjpaw_psl.1.0.0.UPF: wavefunction(s)  2P renormalized
     file O.pbe-n-kjpaw_psl.1.0.0.UPF: wavefunction(s)  2S 2P renormalized
     file Si.pbe-n-kjpaw_psl.1.0.0.UPF: wavefunction(s)  3S 3P renormalized

     R & G space division:  proc/nbgrp/npool/nimage =       6
     Subspace diagonalization in iterative solution of the eigenvalue problem:
     a serial algorithm will be used

     Using Slab Decomposition

     bravais-lattice index     =          -12
     lattice parameter (alat)  =      10.0136  a.u.
     unit-cell volume          =    3303.4414 (a.u.)^3
     number of atoms/cell      =           40
     number of atomic types    =            6
     number of electrons       =       256.00
     number of Kohn-Sham states=          128
     kinetic-energy cutoff     =      60.0000  Ry
     charge density cutoff     =     480.0000  Ry
     scf convergence threshold =      1.0E-06
     mixing beta               =       0.7000
     number of iterations used =            8  plain     mixing
     energy convergence thresh.=      1.0E-04
     force convergence thresh. =      1.0E-03
     press convergence thresh. =      5.0E-01
     Exchange-correlation= SLA  PW   PBX  PBC
                           (   1   4   3   4   0   0   0)
     nstep                     =           50

     celldm(1)=  10.013640  celldm(2)=   1.735306  celldm(3)=   1.926511
     celldm(4)=   0.000000  celldm(5)=  -0.177565  celldm(6)=   0.000000

     crystal axes: (cart. coord. in units of alat)
               a(1) = (   1.000000   0.000000   0.000000 )
               a(2) = (   0.000000   1.735306   0.000000 )
               a(3) = (  -0.342081   0.000000   1.895896 )

     reciprocal axes: (cart. coord. in units 2 pi/alat)
               b(1) = (  1.000000 -0.000000  0.180432 )
               b(2) = (  0.000000  0.576267 -0.000000 )
               b(3) = (  0.000000  0.000000  0.527455 )

     PseudoPot. # 1 for Al read from file:
     ./../../pseudos/Al.pbe-n-kjpaw_psl.1.0.0.UPF
     MD5 check sum: 502b6b27b9c6270cab5dd1084b96fa6d
     Pseudo is Projector augmented-wave + core cor, Zval =  3.0
     Generated using &quot;atomic&quot; code by A. Dal Corso  v.6.3
     Shape of augmentation charge: PSQ
     Using radial grid of 1135 points,  6 beta functions with:
                l(1) =   0
                l(2) =   0
                l(3) =   1
                l(4) =   1
                l(5) =   2
                l(6) =   2
     Q(r) pseudized with 0 coefficients

     PseudoPot. # 2 for F  read from file:
     ./../../pseudos/F.pbe-n-kjpaw_psl.1.0.0.UPF
     MD5 check sum: 66d718ea72839a4268ab2a9540e8cdd4
     Pseudo is Projector augmented-wave + core cor, Zval =  7.0
     Generated using &quot;atomic&quot; code by A. Dal Corso  v.6.3
     Shape of augmentation charge: PSQ
     Using radial grid of 1105 points,  4 beta functions with:
                l(1) =   0
                l(2) =   0
                l(3) =   1
                l(4) =   1
     Q(r) pseudized with 0 coefficients

     PseudoPot. # 3 for K  read from file:
     ./../../pseudos/K.pbe-spn-kjpaw_psl.1.0.0.UPF
     MD5 check sum: 34cc42130a09071ebe376fd42eb21491
     Pseudo is Projector augmented-wave + core cor, Zval =  9.0
     Generated using &quot;atomic&quot; code by A. Dal Corso  v.6.2.2
     Shape of augmentation charge: PSQ
     Using radial grid of 1165 points,  6 beta functions with:
                l(1) =   0
                l(2) =   0
                l(3) =   1
                l(4) =   1
                l(5) =   2
                l(6) =   2
     Q(r) pseudized with 0 coefficients

     PseudoPot. # 4 for Mg read from file:
     ./../../pseudos/Mg.pbe-spnl-kjpaw_psl.1.0.0.UPF
     MD5 check sum: fda14e0d92a6a9a5ebed782e5a4b3067
     Pseudo is Projector augmented-wave + core cor, Zval = 10.0
     Generated using &quot;atomic&quot; code by A. Dal Corso  v.6.3
     Shape of augmentation charge: PSQ
     Using radial grid of 1129 points,  4 beta functions with:
                l(1) =   0
                l(2) =   0
                l(3) =   1
                l(4) =   1
     Q(r) pseudized with 0 coefficients

     PseudoPot. # 5 for O  read from file:
     ./../../pseudos/O.pbe-n-kjpaw_psl.1.0.0.UPF
     MD5 check sum: e99d9cef9b487d1ca56f5b95ecd0fd7a
     Pseudo is Projector augmented-wave + core cor, Zval =  6.0
     Generated using &quot;atomic&quot; code by A. Dal Corso  v.6.3
     Shape of augmentation charge: PSQ
     Using radial grid of 1095 points,  4 beta functions with:
                l(1) =   0
                l(2) =   0
                l(3) =   1
                l(4) =   1
     Q(r) pseudized with 0 coefficients

     PseudoPot. # 6 for Si read from file:
     ./../../pseudos/Si.pbe-n-kjpaw_psl.1.0.0.UPF
     MD5 check sum: c39c59da582df4a0d9f10159256ea34e
     Pseudo is Projector augmented-wave + core cor, Zval =  4.0
     Generated using &quot;atomic&quot; code by A. Dal Corso  v.6.3
     Shape of augmentation charge: PSQ
     Using radial grid of 1141 points,  6 beta functions with:
                l(1) =   0
                l(2) =   0
                l(3) =   1
                l(4) =   1
                l(5) =   2
                l(6) =   2
     Q(r) pseudized with 0 coefficients

     atomic species   valence    mass     pseudopotential
     Al                3.00    26.98154     Al( 1.00)
     F                 7.00    18.99840     F ( 1.00)
     K                 9.00    39.09830     K ( 1.00)
     Mg               10.00    24.30500     Mg( 1.00)
     O                 6.00    15.99940     O ( 1.00)
     Si                4.00    28.08550     Si( 1.00)

      2 Sym. Ops. (no inversion) found

                                    s                        frac. trans.

      isym =  1     identity

 cryst.   s( 1) = (     1          0          0      )
                  (     0          1          0      )
                  (     0          0          1      )

 cart.    s( 1) = (  1.0000000  0.0000000 -0.0000000 )
                  (  0.0000000  1.0000000  0.0000000 )
                  (  0.0000000  0.0000000  1.0000000 )

      isym =  2     180 deg rotation - cart. axis [0,1,0]

[...]

     point group C_2  (2)
     there are  2 classes
     the character table:

       E     C2
A      1.00  1.00
B      1.00 -1.00

     the symmetry operations in each class and the name of the first element:

     E        1
          identity
     C2       2
          180 deg rotation - cart. axis [0,1,0]

   Cartesian axes

     site n.     atom                  positions (alat units)
         1        K      tau(   1) = (   0.0000000   0.8468609   0.0000000  )
         2        K      tau(   2) = (   0.5000000   0.0167233   0.0000000  )
         3        Mg     tau(   3) = (  -0.1710407   0.0066588   0.9479482  )
         4        Mg     tau(   4) = (  -0.1710407   0.5763952   0.9479482  )
         5        Mg     tau(   5) = (  -0.1710407   1.1561885   0.9479482  )
         6        Mg     tau(   6) = (   0.3289593   0.8580319   0.9479482  )
         7        Mg     tau(   7) = (   0.3289593   1.4457000   0.9479482  )
         8        Mg     tau(   8) = (   0.3289593   0.3014119   0.9479482  )
         9        Si     tau(   9) = (   0.0061865   0.2862223   0.4208854  )
        10        Si     tau(  10) = (   0.6517322   0.2862223   1.4750109  )
        11        Si     tau(  11) = (   0.6695219   1.4470829   1.4642529  )
        12        Si     tau(  12) = (  -0.0116032   1.4470829   0.4316435  )
        13        Si     tau(  13) = (   0.4877121   1.1558851   0.4270992  )
        14        Si     tau(  14) = (   0.1702066   1.1558851   1.4687973  )
        15        Al     tau(  15) = (   0.1509427   0.5746884   1.4715234  )
        16        Al     tau(  16) = (   0.5069760   0.5746884   0.4243729  )
        17        O      tau(  17) = (  -0.0038180   0.2825315   0.7322793  )
        18        O      tau(  18) = (   0.6617367   0.2825315   1.1636171  )
        19        O      tau(  19) = (   0.6658990   1.4448064   1.1561260  )
        20        O      tau(  20) = (  -0.0079804   1.4448064   0.7397705  )
        21        O      tau(  21) = (   0.4923394   1.1612222   0.7368663  )
        22        O      tau(  22) = (   0.1655792   1.1612222   1.1590302  )
        23        O      tau(  23) = (   0.1535635   0.5805277   1.1419054  )
        24        O      tau(  24) = (   0.5043552   0.5805277   0.7539910  )
        25        O      tau(  25) = (   0.2805287   0.3615432   0.3121975  )
        26        O      tau(  26) = (   0.3773900   0.3615432   1.5836990  )
        27        O      tau(  27) = (  -0.0542995   1.7296176   0.3183937  )
        28        O      tau(  28) = (   0.7122183   1.7296176   1.5775027  )
        29        O      tau(  29) = (   0.3999055   1.3405657   1.5749935  )
        30        O      tau(  30) = (   0.2580133   1.3405657   0.3209028  )
        31        O      tau(  31) = (   0.7566973   1.2742256   0.3192096  )
        32        O      tau(  32) = (  -0.0987786   1.2742256   1.5766868  )
        33        O      tau(  33) = (   0.4484521   0.8809566   0.3060192  )
        34        O      tau(  34) = (   0.2094666   0.8809566   1.5898772  )
        35        O      tau(  35) = (  -0.1377514   0.4712201   1.5944708  )
        36        O      tau(  36) = (   0.7956702   0.4712201   0.3014256  )
        37        F      tau(  37) = (  -0.0053443   0.8788784   0.7555156  )
        38        F      tau(  38) = (   0.6632630   0.8788784   1.1403808  )
        39        F      tau(  39) = (   0.4963900   1.7320517   0.7641272  )
        40        F      tau(  40) = (   0.1615287   1.7320517   1.1317692  )

     DFT-D3 Dispersion Correction (3-body terms):
       Reference C6 values for interpolation:

         atom   Coordination number   C6
         O          0.000            31.01
         O          0.993            25.63
         O          1.989            20.74
         F          0.000            19.38
         F          0.998            14.27
         Mg         0.000          1366.75
         Mg         0.963           902.54
         Mg         1.950           351.12
         Al         0.000          1081.08
         Al         0.965           875.51
         Al         1.931           513.50
         Al         2.915           307.19
         Si         0.000           635.71
         Si         0.951           540.53
         Si         1.944           466.25
         Si         2.941           443.01
         Si         3.868           299.55
         K          0.000          9967.00
         K          0.977           676.04

[...]
     atom   24 type  5   force =    -0.01801320   -0.11087764   13.43696945
     atom   25 type  5   force =    -2.01646388   -0.77994671   10.74631947
     atom   26 type  5   force =     2.01645955   -0.77994724  -10.74636318
     atom   27 type  5   force =     0.92017723   -0.08782597   11.91345445
     atom   28 type  5   force =    -0.92020704   -0.08782631  -11.91343206
     atom   29 type  5   force =     0.42329738   -0.20800107  -12.42787702
     atom   30 type  5   force =    -0.42332341   -0.20800279   12.42789888
     atom   31 type  5   force =    -0.30996315    1.13261051   12.44668400
     atom   32 type  5   force =     0.30995554    1.13261003  -12.44667300
     atom   33 type  5   force =     0.56975865    2.01424051   11.28929801
     atom   34 type  5   force =    -0.56977113    2.01424050  -11.28929788
     atom   35 type  5   force =    -1.22825345   -2.11532825  -10.67506907
     atom   36 type  5   force =     1.22824396   -2.11532895   10.67505821
     atom   37 type  2   force =    -0.23267809    0.91185098   18.03691897
     atom   38 type  2   force =     0.23265310    0.91185114  -18.03691900
     atom   39 type  2   force =     0.06544153   -0.74435861   17.30162317
     atom   40 type  2   force =    -0.06543294   -0.74435846  -17.30167417
     The core correction contribution to forces
     atom    1 type  3   force =    -0.00000000   -0.00160659   -0.00000000
     atom    2 type  3   force =     0.00000000    0.00179761   -0.00000000
     atom    3 type  4   force =    -0.00000000    0.00026959    0.00000000
     atom    4 type  4   force =     0.00000000   -0.00027012    0.00000000
     atom    5 type  4   force =     0.00000000    0.00007654   -0.00000000
     atom    6 type  4   force =     0.00000000   -0.00087536    0.00000000
     atom    7 type  4   force =     0.00000000   -0.00023453   -0.00000000
     atom    8 type  4   force =    -0.00000000    0.00101425    0.00000000
     atom    9 type  6   force =     0.00246104    0.01204773    0.00005585
     atom   10 type  6   force =    -0.00246099    0.01204771   -0.00005600
     atom   11 type  6   force =     0.00059434    0.00419383   -0.00917643
     atom   12 type  6   force =    -0.00059435    0.00419383    0.00917643
     atom   13 type  6   force =    -0.00147502   -0.01304820    0.00596839
     atom   14 type  6   force =     0.00147502   -0.01304820   -0.00596839
     atom   15 type  1   force =    -0.00068027   -0.00299803   -0.00618522
     atom   16 type  1   force =     0.00068030   -0.00299804    0.00618509
     atom   17 type  5   force =    -0.00008696    0.00021474    0.00589121
     atom   18 type  5   force =     0.00008693    0.00021474   -0.00589121
     atom   19 type  5   force =    -0.00005748    0.00006386   -0.00649496
     atom   20 type  5   force =     0.00005747    0.00006386    0.00649496
     atom   21 type  5   force =     0.00004375   -0.00018029    0.00630363
     atom   22 type  5   force =    -0.00004378   -0.00018029   -0.00630363
     atom   23 type  5   force =     0.00010184    0.00007003   -0.00275099
     atom   24 type  5   force =    -0.00010184    0.00007003    0.00275099
     atom   25 type  5   force =     0.00449572   -0.00131524   -0.00598973
     atom   26 type  5   force =    -0.00449571   -0.00131524    0.00598978
     atom   27 type  5   force =    -0.00296043    0.00088605   -0.00720174
     atom   28 type  5   force =     0.00296047    0.00088605    0.00720171
     atom   29 type  5   force =    -0.00148825    0.00208660    0.00728716
     atom   30 type  5   force =     0.00148825    0.00208662   -0.00728719
     atom   31 type  5   force =     0.00069414   -0.00183822   -0.00744480
     atom   32 type  5   force =    -0.00069414   -0.00183821    0.00744479
     atom   33 type  5   force =    -0.00210306   -0.00367307   -0.00662408
     atom   34 type  5   force =     0.00210307   -0.00367306    0.00662408
     atom   35 type  5   force =     0.00141876    0.00369559    0.00659082
     atom   36 type  5   force =    -0.00141875    0.00369560   -0.00659081
     atom   37 type  2   force =     0.00003604   -0.00031366   -0.00255212
     atom   38 type  2   force =    -0.00003608   -0.00031366    0.00255212
     atom   39 type  2   force =    -0.00012771    0.00026901   -0.00256808
     atom   40 type  2   force =     0.00012773    0.00026901    0.00256802
     The Hubbard contrib.    to forces
     atom    1 type  3   force =     0.00000000    0.00000000    0.00000000
     atom    2 type  3   force =     0.00000000    0.00000000    0.00000000
     atom    3 type  4   force =     0.00000000    0.00000000    0.00000000
     atom    4 type  4   force =     0.00000000    0.00000000    0.00000000
     atom    5 type  4   force =     0.00000000    0.00000000    0.00000000
     atom    6 type  4   force =     0.00000000    0.00000000    0.00000000
     atom    7 type  4   force =     0.00000000    0.00000000    0.00000000
     atom    8 type  4   force =     0.00000000    0.00000000    0.00000000
     atom    9 type  6   force =     0.00000000    0.00000000    0.00000000
     atom   10 type  6   force =     0.00000000    0.00000000    0.00000000
     atom   11 type  6   force =     0.00000000    0.00000000    0.00000000
     atom   12 type  6   force =     0.00000000    0.00000000    0.00000000
     atom   13 type  6   force =     0.00000000    0.00000000    0.00000000
     atom   14 type  6   force =     0.00000000    0.00000000    0.00000000
     atom   15 type  1   force =     0.00000000    0.00000000    0.00000000
     atom   16 type  1   force =     0.00000000    0.00000000    0.00000000
     atom   17 type  5   force =     0.00000000    0.00000000    0.00000000
     atom   18 type  5   force =     0.00000000    0.00000000    0.00000000
     atom   19 type  5   force =     0.00000000    0.00000000    0.00000000
     atom   20 type  5   force =     0.00000000    0.00000000    0.00000000
     atom   21 type  5   force =     0.00000000    0.00000000    0.00000000
     atom   22 type  5   force =     0.00000000    0.00000000    0.00000000
     atom   23 type  5   force =     0.00000000    0.00000000    0.00000000
     atom   24 type  5   force =     0.00000000    0.00000000    0.00000000
     atom   25 type  5   force =     0.00000000    0.00000000    0.00000000
     atom   26 type  5   force =     0.00000000    0.00000000    0.00000000
     atom   27 type  5   force =     0.00000000    0.00000000    0.00000000
     atom   28 type  5   force =     0.00000000    0.00000000    0.00000000
     atom   29 type  5   force =     0.00000000    0.00000000    0.00000000
     atom   30 type  5   force =     0.00000000    0.00000000    0.00000000
     atom   31 type  5   force =     0.00000000    0.00000000    0.00000000
     atom   32 type  5   force =     0.00000000    0.00000000    0.00000000
     atom   33 type  5   force =     0.00000000    0.00000000    0.00000000
     atom   34 type  5   force =     0.00000000    0.00000000    0.00000000
     atom   35 type  5   force =     0.00000000    0.00000000    0.00000000
     atom   36 type  5   force =     0.00000000    0.00000000    0.00000000
     atom   37 type  2   force =     0.00000000    0.00000000    0.00000000
     atom   38 type  2   force =     0.00000000    0.00000000    0.00000000
     atom   39 type  2   force =     0.00000000    0.00000000    0.00000000
     atom   40 type  2   force =     0.00000000    0.00000000    0.00000000
     The SCF correction term to forces
     atom    1 type  3   force =    -0.00000000   -0.00000919   -0.00000000
     atom    2 type  3   force =    -0.00000000    0.00001018   -0.00000000
     atom    3 type  4   force =    -0.00000000   -0.00000371    0.00000000
     atom    4 type  4   force =     0.00000000    0.00003642    0.00000000
     atom    5 type  4   force =     0.00000000   -0.00004345    0.00000000
     atom    6 type  4   force =    -0.00000000    0.00000069   -0.00000000
     atom    7 type  4   force =     0.00000000    0.00002910    0.00000000
     atom    8 type  4   force =     0.00000000   -0.00001619    0.00000000
     atom    9 type  6   force =     0.00000029    0.00002039   -0.00002138
     atom   10 type  6   force =    -0.00000029    0.00002039    0.00002138
     atom   11 type  6   force =     0.00000228   -0.00001430    0.00001530
     atom   12 type  6   force =    -0.00000228   -0.00001430   -0.00001530
     atom   13 type  6   force =     0.00000328   -0.00001178   -0.00002437
     atom   14 type  6   force =    -0.00000328   -0.00001178    0.00002437
     atom   15 type  1   force =    -0.00000182    0.00000436    0.00001819
     atom   16 type  1   force =     0.00000182    0.00000436   -0.00001819
     atom   17 type  5   force =     0.00000350    0.00000799   -0.00003589
     atom   18 type  5   force =    -0.00000350    0.00000799    0.00003589
     atom   19 type  5   force =     0.00000034   -0.00000565    0.00004757
     atom   20 type  5   force =    -0.00000034   -0.00000565   -0.00004757
     atom   21 type  5   force =     0.00000499   -0.00001339   -0.00005326
     atom   22 type  5   force =    -0.00000499   -0.00001339    0.00005326
     atom   23 type  5   force =    -0.00000145    0.00001134    0.00003465
     atom   24 type  5   force =     0.00000145    0.00001134   -0.00003465
     atom   25 type  5   force =     0.00000407    0.00002252   -0.00001482
     atom   26 type  5   force =    -0.00000407    0.00002252    0.00001482
     atom   27 type  5   force =     0.00000319   -0.00000371    0.00000258
     atom   28 type  5   force =    -0.00000319   -0.00000371   -0.00000258
     atom   29 type  5   force =    -0.00000264   -0.00001784    0.00000058
     atom   30 type  5   force =     0.00000264   -0.00001784   -0.00000058
     atom   31 type  5   force =    -0.00000514   -0.00001725    0.00000128
     atom   32 type  5   force =     0.00000514   -0.00001725   -0.00000128
     atom   33 type  5   force =     0.00000586   -0.00000205   -0.00001426
     atom   34 type  5   force =    -0.00000586   -0.00000205    0.00001426
     atom   35 type  5   force =     0.00000821    0.00002118    0.00001787
     atom   36 type  5   force =    -0.00000821    0.00002118   -0.00001787
     atom   37 type  2   force =    -0.00000502    0.00000037   -0.00002582
     atom   38 type  2   force =     0.00000502    0.00000037    0.00002582
     atom   39 type  2   force =    -0.00000499   -0.00000041   -0.00002411
     atom   40 type  2   force =     0.00000499   -0.00000041    0.00002411

     DFT-D3 dispersion contribution to forces:
     atom    1 type  3   force =     0.00000000    0.00133474   -0.00000000
     atom    2 type  3   force =     0.00000000   -0.00136578   -0.00000000
     atom    3 type  4   force =     0.00000000    0.00028633   -0.00000000
     atom    4 type  4   force =    -0.00000000    0.00146364    0.00000000
     atom    5 type  4   force =    -0.00000000   -0.00171773    0.00000000
     atom    6 type  4   force =    -0.00000000   -0.00048665    0.00000000
     atom    7 type  4   force =    -0.00000000    0.00166534   -0.00000000
     atom    8 type  4   force =    -0.00000000   -0.00106173    0.00000000
     atom    9 type  6   force =     0.00010340   -0.00009603   -0.00030266
     atom   10 type  6   force =    -0.00010340   -0.00009603    0.00030266
     atom   11 type  6   force =     0.00007663    0.00002062    0.00025033
     atom   12 type  6   force =    -0.00007663    0.00002062   -0.00025033
     atom   13 type  6   force =    -0.00009209    0.00006662   -0.00023474
     atom   14 type  6   force =     0.00009209    0.00006662    0.00023474
     atom   15 type  1   force =    -0.00005903    0.00000184   -0.00115177
     atom   16 type  1   force =     0.00005903    0.00000184    0.00115177
     atom   17 type  5   force =    -0.00000091    0.00000969    0.00046780
     atom   18 type  5   force =     0.00000091    0.00000970   -0.00046780
     atom   19 type  5   force =    -0.00001873    0.00002915   -0.00047582
     atom   20 type  5   force =     0.00001873    0.00002915    0.00047582
     atom   21 type  5   force =     0.00000697   -0.00008525    0.00049836
     atom   22 type  5   force =    -0.00000697   -0.00008525   -0.00049837
     atom   23 type  5   force =    -0.00005848    0.00000458    0.00004063
     atom   24 type  5   force =     0.00005849    0.00000458   -0.00004063
     atom   25 type  5   force =    -0.00009076    0.00079265    0.00026859
     atom   26 type  5   force =     0.00009076    0.00079265   -0.00026859
     atom   27 type  5   force =     0.00078160    0.00004551    0.00009655
     atom   28 type  5   force =    -0.00078160    0.00004551   -0.00009655
     atom   29 type  5   force =     0.00032676   -0.00050960    0.00014414
     atom   30 type  5   force =    -0.00032677   -0.00050960   -0.00014414
     atom   31 type  5   force =    -0.00016451    0.00027670   -0.00018120
     atom   32 type  5   force =     0.00016451    0.00027670    0.00018120
     atom   33 type  5   force =     0.00081247   -0.00040631    0.00033360
     atom   34 type  5   force =    -0.00081247   -0.00040631   -0.00033360
     atom   35 type  5   force =     0.00049224   -0.00024711   -0.00047185
     atom   36 type  5   force =    -0.00049224   -0.00024711    0.00047185
     atom   37 type  2   force =     0.00000938    0.00004960   -0.00050024
     atom   38 type  2   force =    -0.00000938    0.00004960    0.00050024
     atom   39 type  2   force =     0.00004792   -0.00001173   -0.00053937
     atom   40 type  2   force =    -0.00004792   -0.00001173    0.00053937

     Total force =     0.002349     Total SCF correction =     0.000182

     DFT-D3 dispersion Force =     0.005026

     Computing stress (Cartesian axis) and pressure

          total   stress  (Ry/bohr**3)                   (kbar)     P=       -0.13
  -0.00000082   0.00000000  -0.00000069           -0.12        0.00       -0.10
   0.00000000   0.00000024   0.00000000            0.00        0.04        0.00
  -0.00000069   0.00000000  -0.00000214           -0.10        0.00       -0.32

     kinetic stress (kbar)  19230.15      0.00     -1.40
                                0.00  19231.32      0.00
                               -1.40      0.00  19281.07

     local   stress (kbar) -38679.76     -0.00    -49.33
                               -0.00 -38366.23      0.00
                              -49.33      0.00  14502.97

     nonloc. stress (kbar)   5937.70      0.00     -0.17
                                0.00   5937.32      0.00
                               -0.17      0.00   5940.98

     hartree stress (kbar)  20906.35     -0.00     20.07
                               -0.00  20772.76      0.00
                               20.07      0.00  -4677.42

     exc-cor stress (kbar)  -2893.31      0.00     -0.02
                                0.00  -2893.49     -0.00
                               -0.02     -0.00  -2895.80

     corecor stress (kbar)  -1818.95     -0.00      0.08
                               -0.00  -1818.94      0.00
                                0.08      0.00  -1819.47

     ewald   stress (kbar)  -2668.07      0.00     30.59
                                0.00  -2848.30     -0.00
                               30.59     -0.00 -30321.30

     hubbard stress (kbar)      0.00      0.00      0.00
                                0.00      0.00      0.00
                                0.00      0.00      0.00

     DFT-D   stress (kbar)    -14.23      0.00      0.08
                                0.00    -14.40     -0.00
                                0.08     -0.00    -11.35

     XDM     stress (kbar)      0.00      0.00      0.00
                                0.00      0.00      0.00
                                0.00      0.00      0.00

     dft-nl  stress (kbar)      0.00      0.00      0.00
                                0.00      0.00      0.00
                                0.00      0.00      0.00

     TS-vdW  stress (kbar)      0.00      0.00      0.00
                                0.00      0.00      0.00
                                0.00      0.00      0.00

     MDB     stress (kbar)      0.00      0.00      0.00
                                0.00      0.00      0.00
                                0.00      0.00      0.00

     3D-RISM stress (kbar)      0.00      0.00      0.00
                                0.00      0.00      0.00
                                0.00      0.00      0.00

     Writing all to output data dir ./temp/phl-f.save/ :
     XML data file, charge density, pseudopotentials, collected wavefunctions

     General routines

     Parallel routines

     PAW routines

   This run was terminated on:  16:42:13  24Jan2025

   JOB DONE.